
Version,
  25.2;                                   !- Version Identifier

Timestep,
  4;                                      !- Number of Timesteps per Hour

Building,
  Escritorio ficticio Sao Paulo - 8000 m2 - sem VE, !- Name
  ,                                       !- North Axis {deg}
  ,                                       !- Terrain
  ,                                       !- Loads Convergence Tolerance Value {W}
  ,                                       !- Temperature Convergence Tolerance Value {deltaC}
  ,                                       !- Solar Distribution
  ,                                       !- Maximum Number of Warmup Days
  ;                                       !- Minimum Number of Warmup Days

Zone,
  Zona P1_0_0,                            !- Name
  ,                                       !- Direction of Relative North {deg}
  0,                                      !- X Origin {m}
  0,                                      !- Y Origin {m}
  0,                                      !- Z Origin {m}
  ,                                       !- Type
  1,                                      !- Multiplier
  ,                                       !- Ceiling Height {m}
  ,                                       !- Volume {m3}
  ,                                       !- Floor Area {m2}
  ,                                       !- Zone Inside Convection Algorithm
  ,                                       !- Zone Outside Convection Algorithm
  Yes;                                    !- Part of Total Floor Area

Space,
  P1_0_0,                                 !- Name
  Zona P1_0_0,                            !- Zone Name
  ,                                       !- Ceiling Height {m}
  ,                                       !- Volume {m3}
  ;                                       !- Floor Area {m2}

BuildingSurface:Detailed,
  Surface 1,                              !- Name
  Floor,                                  !- Surface Type
  Laje concreto,                          !- Construction Name
  Zona P1_0_0,                            !- Zone Name
  P1_0_0,                                 !- Space Name
  Ground,                                 !- Outside Boundary Condition
  ,                                       !- Outside Boundary Condition Object
  NoSun,                                  !- Sun Exposure
  NoWind,                                 !- Wind Exposure
  ,                                       !- View Factor to Ground
  ,                                       !- Number of Vertices
  0, 0, 0,                                !- X,Y,Z Vertex 1 {m}
  0, 20, 0,                               !- X,Y,Z Vertex 2 {m}
  25, 20, 0,                              !- X,Y,Z Vertex 3 {m}
  25, 0, 0;                               !- X,Y,Z Vertex 4 {m}

BuildingSurface:Detailed,
  Surface 2,                              !- Name
  Wall,                                   !- Surface Type
  Alvenaria rebocada,                     !- Construction Name
  Zona P1_0_0,                            !- Zone Name
  P1_0_0,                                 !- Space Name
  Outdoors,                               !- Outside Boundary Condition
  ,                                       !- Outside Boundary Condition Object
  SunExposed,                             !- Sun Exposure
  WindExposed,                            !- Wind Exposure
  ,                                       !- View Factor to Ground
  ,                                       !- Number of Vertices
  0, 0, 3.5,                              !- X,Y,Z Vertex 1 {m}
  0, 20, 3.5,                             !- X,Y,Z Vertex 2 {m}
  0, 20, 0,                               !- X,Y,Z Vertex 3 {m}
  0, 0, 0;                                !- X,Y,Z Vertex 4 {m}

FenestrationSurface:Detailed,
  Sub Surface 4,                          !- Name
  Window,                                 !- Surface Type
  Vidro U3 SHGC0.4,                       !- Construction Name
  Surface 2,                              !- Building Surface Name
  ,                                       !- Outside Boundary Condition Object
  ,                                       !- View Factor to Ground
  ,                                       !- Frame and Divider Name
  ,                                       !- Multiplier
  ,                                       !- Number of Vertices
  0, 19.9746, 1.81467379143023,           !- X,Y,Z Vertex 1 {m}
  0, 19.9746, 0.762,                      !- X,Y,Z Vertex 2 {m}
  0, 0.0253999999999976, 0.762,           !- X,Y,Z Vertex 3 {m}
  0, 0.0253999999999976, 1.81467379143023; !- X,Y,Z Vertex 4 {m}

BuildingSurface:Detailed,
  Surface 3,                              !- Name
  Wall,                                   !- Surface Type
  Alvenaria rebocada,                     !- Construction Name
  Zona P1_0_0,                            !- Zone Name
  P1_0_0,                                 !- Space Name
  Surface,                                !- Outside Boundary Condition
  Surface 11,                             !- Outside Boundary Condition Object
  NoSun,                                  !- Sun Exposure
  NoWind,                                 !- Wind Exposure
  ,                                       !- View Factor to Ground
  ,                                       !- Number of Vertices
  0, 20, 3.5,                             !- X,Y,Z Vertex 1 {m}
  25, 20, 3.5,                            !- X,Y,Z Vertex 2 {m}
  25, 20, 0,                              !- X,Y,Z Vertex 3 {m}
  0, 20, 0;                               !- X,Y,Z Vertex 4 {m}

BuildingSurface:Detailed,
  Surface 4,                              !- Name
  Wall,                                   !- Surface Type
  Alvenaria rebocada,                     !- Construction Name
  Zona P1_0_0,                            !- Zone Name
  P1_0_0,                                 !- Space Name
  Surface,                                !- Outside Boundary Condition
  Surface 14,                             !- Outside Boundary Condition Object
  NoSun,                                  !- Sun Exposure
  NoWind,                                 !- Wind Exposure
  ,                                       !- View Factor to Ground
  ,                                       !- Number of Vertices
  25, 20, 3.5,                            !- X,Y,Z Vertex 1 {m}
  25, 0, 3.5,                             !- X,Y,Z Vertex 2 {m}
  25, 0, 0,                               !- X,Y,Z Vertex 3 {m}
  25, 20, 0;                              !- X,Y,Z Vertex 4 {m}

BuildingSurface:Detailed,
  Surface 5,                              !- Name
  Wall,                                   !- Surface Type
  Alvenaria rebocada,                     !- Construction Name
  Zona P1_0_0,                            !- Zone Name
  P1_0_0,                                 !- Space Name
  Outdoors,                               !- Outside Boundary Condition
  ,                                       !- Outside Boundary Condition Object
  SunExposed,                             !- Sun Exposure
  WindExposed,                            !- Wind Exposure
  ,                                       !- View Factor to Ground
  ,                                       !- Number of Vertices
  25, 0, 3.5,                             !- X,Y,Z Vertex 1 {m}
  0, 0, 3.5,                              !- X,Y,Z Vertex 2 {m}
  0, 0, 0,                                !- X,Y,Z Vertex 3 {m}
  25, 0, 0;                               !- X,Y,Z Vertex 4 {m}

FenestrationSurface:Detailed,
  Sub Surface 5,                          !- Name
  Window,                                 !- Surface Type
  Vidro U3 SHGC0.4,                       !- Construction Name
  Surface 5,                              !- Building Surface Name
  ,                                       !- Outside Boundary Condition Object
  ,                                       !- View Factor to Ground
  ,                                       !- Frame and Divider Name
  ,                                       !- Multiplier
  ,                                       !- Number of Vertices
  0.0254, 0, 1.81413794430282,            !- X,Y,Z Vertex 1 {m}
  0.0254, 0, 0.762,                       !- X,Y,Z Vertex 2 {m}
  24.9746, 0, 0.762,                      !- X,Y,Z Vertex 3 {m}
  24.9746, 0, 1.81413794430282;           !- X,Y,Z Vertex 4 {m}

BuildingSurface:Detailed,
  Surface 6,                              !- Name
  Ceiling,                                !- Surface Type
  Laje concreto,                          !- Construction Name
  Zona P1_0_0,                            !- Zone Name
  P1_0_0,                                 !- Space Name
  Surface,                                !- Outside Boundary Condition
  Surface 25,                             !- Outside Boundary Condition Object
  NoSun,                                  !- Sun Exposure
  NoWind,                                 !- Wind Exposure
  ,                                       !- View Factor to Ground
  ,                                       !- Number of Vertices
  25, 0, 3.5,                             !- X,Y,Z Vertex 1 {m}
  25, 20, 3.5,                            !- X,Y,Z Vertex 2 {m}
  0, 20, 3.5,                             !- X,Y,Z Vertex 3 {m}
  0, 0, 3.5;                              !- X,Y,Z Vertex 4 {m}

Lights,
  Lights 1,                               !- Name
  P1_0_0,                                 !- Zone or ZoneList or Space or SpaceList Name
  Iluminacao,                             !- Schedule Name
  Watts/Area,                             !- Design Level Calculation Method
  ,                                       !- Lighting Level {W}
  8,                                      !- Watts per Floor Area {W/m2}
  ,                                       !- Watts per Person {W/person}
  ,                                       !- Return Air Fraction
  ,                                       !- Fraction Radiant
  ,                                       !- Fraction Visible
  1,                                      !- Fraction Replaceable
  General;                                !- End-Use Subcategory

ScheduleTypeLimits,
  Fractional,                             !- Name
  0,                                      !- Lower Limit Value {BasedOnField A3}
  1,                                      !- Upper Limit Value {BasedOnField A3}
  Continuous;                             !- Numeric Type

Schedule:Day:Interval,
  Schedule Day 4,                         !- Name
  Fractional,                             !- Schedule Type Limits Name
  No,                                     !- Interpolate to Timestep
  07:00,                                  !- Time 1 {hh:mm}
  0.05,                                   !- Value Until Time 1
  08:00,                                  !- Time 2 {hh:mm}
  0.3,                                    !- Value Until Time 2
  09:00,                                  !- Time 3 {hh:mm}
  0.7,                                    !- Value Until Time 3
  12:00,                                  !- Time 4 {hh:mm}
  0.95,                                   !- Value Until Time 4
  13:00,                                  !- Time 5 {hh:mm}
  0.75,                                   !- Value Until Time 5
  18:00,                                  !- Time 6 {hh:mm}
  0.95,                                   !- Value Until Time 6
  20:00,                                  !- Time 7 {hh:mm}
  0.65,                                   !- Value Until Time 7
  22:00,                                  !- Time 8 {hh:mm}
  0.3,                                    !- Value Until Time 8
  24:00,                                  !- Time 9 {hh:mm}
  0.05;                                   !- Value Until Time 9

Schedule:Day:Interval,
  Schedule Day 5,                         !- Name
  Fractional,                             !- Schedule Type Limits Name
  No,                                     !- Interpolate to Timestep
  08:00,                                  !- Time 1 {hh:mm}
  0.05,                                   !- Value Until Time 1
  09:00,                                  !- Time 2 {hh:mm}
  0.15,                                   !- Value Until Time 2
  13:00,                                  !- Time 3 {hh:mm}
  0.35,                                   !- Value Until Time 3
  16:00,                                  !- Time 4 {hh:mm}
  0.2,                                    !- Value Until Time 4
  22:00,                                  !- Time 5 {hh:mm}
  0.1,                                    !- Value Until Time 5
  24:00,                                  !- Time 6 {hh:mm}
  0.05;                                   !- Value Until Time 6

Schedule:Day:Interval,
  Schedule Day 6,                         !- Name
  Fractional,                             !- Schedule Type Limits Name
  No,                                     !- Interpolate to Timestep
  09:00,                                  !- Time 1 {hh:mm}
  0.05,                                   !- Value Until Time 1
  15:00,                                  !- Time 2 {hh:mm}
  0.1,                                    !- Value Until Time 2
  24:00,                                  !- Time 3 {hh:mm}
  0.05;                                   !- Value Until Time 3

Schedule:Week:Daily,
  Iluminacao Week Rule - Jan1-Jan3,       !- Name
  Schedule Day 4,                         !- Sunday Schedule:Day Name
  Schedule Day 4,                         !- Monday Schedule:Day Name
  Schedule Day 4,                         !- Tuesday Schedule:Day Name
  Schedule Day 4,                         !- Wednesday Schedule:Day Name
  Schedule Day 4,                         !- Thursday Schedule:Day Name
  Schedule Day 4,                         !- Friday Schedule:Day Name
  Schedule Day 5,                         !- Saturday Schedule:Day Name
  Schedule Day 4,                         !- Holiday Schedule:Day Name
  Schedule Day 4,                         !- SummerDesignDay Schedule:Day Name
  Schedule Day 4,                         !- WinterDesignDay Schedule:Day Name
  Schedule Day 4,                         !- CustomDay1 Schedule:Day Name
  Schedule Day 4;                         !- CustomDay2 Schedule:Day Name

Schedule:Week:Daily,
  Iluminacao Week Rule - Jan4-Dec31,      !- Name
  Schedule Day 6,                         !- Sunday Schedule:Day Name
  Schedule Day 4,                         !- Monday Schedule:Day Name
  Schedule Day 4,                         !- Tuesday Schedule:Day Name
  Schedule Day 4,                         !- Wednesday Schedule:Day Name
  Schedule Day 4,                         !- Thursday Schedule:Day Name
  Schedule Day 4,                         !- Friday Schedule:Day Name
  Schedule Day 5,                         !- Saturday Schedule:Day Name
  Schedule Day 4,                         !- Holiday Schedule:Day Name
  Schedule Day 4,                         !- SummerDesignDay Schedule:Day Name
  Schedule Day 4,                         !- WinterDesignDay Schedule:Day Name
  Schedule Day 4,                         !- CustomDay1 Schedule:Day Name
  Schedule Day 4;                         !- CustomDay2 Schedule:Day Name

Schedule:Year,
  Iluminacao,                             !- Name
  Fractional,                             !- Schedule Type Limits Name
  Iluminacao Week Rule - Jan1-Jan3,       !- Schedule:Week Name 1
  1,                                      !- Start Month 1
  1,                                      !- Start Day 1
  1,                                      !- End Month 1
  3,                                      !- End Day 1
  Iluminacao Week Rule - Jan4-Dec31,      !- Schedule:Week Name 2
  1,                                      !- Start Month 2
  4,                                      !- Start Day 2
  12,                                     !- End Month 2
  31;                                     !- End Day 2

People,
  People 1,                               !- Name
  P1_0_0,                                 !- Zone or ZoneList or Space or SpaceList Name
  Ocupacao,                               !- Number of People Schedule Name
  People/Area,                            !- Number of People Calculation Method
  ,                                       !- Number of People
  0.08,                                   !- People per Floor Area {person/m2}
  ,                                       !- Floor Area per Person {m2/person}
  0.3,                                    !- Fraction Radiant
  ,                                       !- Sensible Heat Fraction
  Atividade sedentaria 120 W pessoa,      !- Activity Level Schedule Name
  ,                                       !- Carbon Dioxide Generation Rate {m3/s-W}
  ,                                       !- Enable ASHRAE 55 Comfort Warnings
  ,                                       !- Mean Radiant Temperature Calculation Type
  ,                                       !- Surface Name/Angle Factor List Name
  ,                                       !- Work Efficiency Schedule Name
  ClothingInsulationSchedule;             !- Clothing Insulation Calculation Method

Schedule:Day:Interval,
  Schedule Day 1,                         !- Name
  Fractional,                             !- Schedule Type Limits Name
  No,                                     !- Interpolate to Timestep
  07:00,                                  !- Time 1 {hh:mm}
  0,                                      !- Value Until Time 1
  08:00,                                  !- Time 2 {hh:mm}
  0.2,                                    !- Value Until Time 2
  09:00,                                  !- Time 3 {hh:mm}
  0.65,                                   !- Value Until Time 3
  12:00,                                  !- Time 4 {hh:mm}
  0.95,                                   !- Value Until Time 4
  13:00,                                  !- Time 5 {hh:mm}
  0.55,                                   !- Value Until Time 5
  17:00,                                  !- Time 6 {hh:mm}
  0.9,                                    !- Value Until Time 6
  19:00,                                  !- Time 7 {hh:mm}
  0.5,                                    !- Value Until Time 7
  21:00,                                  !- Time 8 {hh:mm}
  0.2,                                    !- Value Until Time 8
  22:00,                                  !- Time 9 {hh:mm}
  0.08,                                   !- Value Until Time 9
  24:00,                                  !- Time 10 {hh:mm}
  0;                                      !- Value Until Time 10

Schedule:Day:Interval,
  Schedule Day 2,                         !- Name
  Fractional,                             !- Schedule Type Limits Name
  No,                                     !- Interpolate to Timestep
  08:00,                                  !- Time 1 {hh:mm}
  0,                                      !- Value Until Time 1
  09:00,                                  !- Time 2 {hh:mm}
  0.1,                                    !- Value Until Time 2
  13:00,                                  !- Time 3 {hh:mm}
  0.25,                                   !- Value Until Time 3
  16:00,                                  !- Time 4 {hh:mm}
  0.12,                                   !- Value Until Time 4
  22:00,                                  !- Time 5 {hh:mm}
  0.03,                                   !- Value Until Time 5
  24:00,                                  !- Time 6 {hh:mm}
  0;                                      !- Value Until Time 6

Schedule:Day:Interval,
  Schedule Day 3,                         !- Name
  Fractional,                             !- Schedule Type Limits Name
  No,                                     !- Interpolate to Timestep
  09:00,                                  !- Time 1 {hh:mm}
  0,                                      !- Value Until Time 1
  15:00,                                  !- Time 2 {hh:mm}
  0.03,                                   !- Value Until Time 2
  24:00,                                  !- Time 3 {hh:mm}
  0;                                      !- Value Until Time 3

Schedule:Week:Daily,
  Ocupacao Week Rule - Jan1-Jan3,         !- Name
  Schedule Day 1,                         !- Sunday Schedule:Day Name
  Schedule Day 1,                         !- Monday Schedule:Day Name
  Schedule Day 1,                         !- Tuesday Schedule:Day Name
  Schedule Day 1,                         !- Wednesday Schedule:Day Name
  Schedule Day 1,                         !- Thursday Schedule:Day Name
  Schedule Day 1,                         !- Friday Schedule:Day Name
  Schedule Day 2,                         !- Saturday Schedule:Day Name
  Schedule Day 1,                         !- Holiday Schedule:Day Name
  Schedule Day 1,                         !- SummerDesignDay Schedule:Day Name
  Schedule Day 1,                         !- WinterDesignDay Schedule:Day Name
  Schedule Day 1,                         !- CustomDay1 Schedule:Day Name
  Schedule Day 1;                         !- CustomDay2 Schedule:Day Name

Schedule:Week:Daily,
  Ocupacao Week Rule - Jan4-Dec31,        !- Name
  Schedule Day 3,                         !- Sunday Schedule:Day Name
  Schedule Day 1,                         !- Monday Schedule:Day Name
  Schedule Day 1,                         !- Tuesday Schedule:Day Name
  Schedule Day 1,                         !- Wednesday Schedule:Day Name
  Schedule Day 1,                         !- Thursday Schedule:Day Name
  Schedule Day 1,                         !- Friday Schedule:Day Name
  Schedule Day 2,                         !- Saturday Schedule:Day Name
  Schedule Day 1,                         !- Holiday Schedule:Day Name
  Schedule Day 1,                         !- SummerDesignDay Schedule:Day Name
  Schedule Day 1,                         !- WinterDesignDay Schedule:Day Name
  Schedule Day 1,                         !- CustomDay1 Schedule:Day Name
  Schedule Day 1;                         !- CustomDay2 Schedule:Day Name

Schedule:Year,
  Ocupacao,                               !- Name
  Fractional,                             !- Schedule Type Limits Name
  Ocupacao Week Rule - Jan1-Jan3,         !- Schedule:Week Name 1
  1,                                      !- Start Month 1
  1,                                      !- Start Day 1
  1,                                      !- End Month 1
  3,                                      !- End Day 1
  Ocupacao Week Rule - Jan4-Dec31,        !- Schedule:Week Name 2
  1,                                      !- Start Month 2
  4,                                      !- Start Day 2
  12,                                     !- End Month 2
  31;                                     !- End Day 2

Schedule:Constant,
  Atividade sedentaria 120 W pessoa,      !- Name
  ActivityLevel,                          !- Schedule Type Limits Name
  120;                                    !- Hourly Value

ElectricEquipment,
  Electric Equipment 1,                   !- Name
  P1_0_0,                                 !- Zone or ZoneList or Space or SpaceList Name
  Computadores e demais equipamentos,     !- Schedule Name
  Watts/Area,                             !- Design Level Calculation Method
  ,                                       !- Design Level {W}
  12,                                     !- Watts per Floor Area {W/m2}
  ,                                       !- Watts per Person {W/person}
  ,                                       !- Fraction Latent
  ,                                       !- Fraction Radiant
  ,                                       !- Fraction Lost
  Computadores e cargas de escritorio;    !- End-Use Subcategory

Schedule:Day:Interval,
  Schedule Day 7,                         !- Name
  Fractional,                             !- Schedule Type Limits Name
  No,                                     !- Interpolate to Timestep
  07:00,                                  !- Time 1 {hh:mm}
  0.2,                                    !- Value Until Time 1
  08:00,                                  !- Time 2 {hh:mm}
  0.35,                                   !- Value Until Time 2
  09:00,                                  !- Time 3 {hh:mm}
  0.7,                                    !- Value Until Time 3
  12:00,                                  !- Time 4 {hh:mm}
  0.95,                                   !- Value Until Time 4
  13:00,                                  !- Time 5 {hh:mm}
  0.65,                                   !- Value Until Time 5
  17:00,                                  !- Time 6 {hh:mm}
  0.9,                                    !- Value Until Time 6
  19:00,                                  !- Time 7 {hh:mm}
  0.6,                                    !- Value Until Time 7
  22:00,                                  !- Time 8 {hh:mm}
  0.3,                                    !- Value Until Time 8
  24:00,                                  !- Time 9 {hh:mm}
  0.2;                                    !- Value Until Time 9

Schedule:Day:Interval,
  Schedule Day 8,                         !- Name
  Fractional,                             !- Schedule Type Limits Name
  No,                                     !- Interpolate to Timestep
  08:00,                                  !- Time 1 {hh:mm}
  0.2,                                    !- Value Until Time 1
  13:00,                                  !- Time 2 {hh:mm}
  0.35,                                   !- Value Until Time 2
  17:00,                                  !- Time 3 {hh:mm}
  0.25,                                   !- Value Until Time 3
  24:00,                                  !- Time 4 {hh:mm}
  0.2;                                    !- Value Until Time 4

Schedule:Day:Interval,
  Schedule Day 9,                         !- Name
  Fractional,                             !- Schedule Type Limits Name
  No,                                     !- Interpolate to Timestep
  24:00,                                  !- Time 1 {hh:mm}
  0.2;                                    !- Value Until Time 1

Schedule:Week:Daily,
  Computadores e demais equipamentos Week Rule - Jan1-Jan3, !- Name
  Schedule Day 7,                         !- Sunday Schedule:Day Name
  Schedule Day 7,                         !- Monday Schedule:Day Name
  Schedule Day 7,                         !- Tuesday Schedule:Day Name
  Schedule Day 7,                         !- Wednesday Schedule:Day Name
  Schedule Day 7,                         !- Thursday Schedule:Day Name
  Schedule Day 7,                         !- Friday Schedule:Day Name
  Schedule Day 8,                         !- Saturday Schedule:Day Name
  Schedule Day 7,                         !- Holiday Schedule:Day Name
  Schedule Day 7,                         !- SummerDesignDay Schedule:Day Name
  Schedule Day 7,                         !- WinterDesignDay Schedule:Day Name
  Schedule Day 7,                         !- CustomDay1 Schedule:Day Name
  Schedule Day 7;                         !- CustomDay2 Schedule:Day Name

Schedule:Week:Daily,
  Computadores e demais equipamentos Week Rule - Jan4-Dec31, !- Name
  Schedule Day 9,                         !- Sunday Schedule:Day Name
  Schedule Day 7,                         !- Monday Schedule:Day Name
  Schedule Day 7,                         !- Tuesday Schedule:Day Name
  Schedule Day 7,                         !- Wednesday Schedule:Day Name
  Schedule Day 7,                         !- Thursday Schedule:Day Name
  Schedule Day 7,                         !- Friday Schedule:Day Name
  Schedule Day 8,                         !- Saturday Schedule:Day Name
  Schedule Day 7,                         !- Holiday Schedule:Day Name
  Schedule Day 7,                         !- SummerDesignDay Schedule:Day Name
  Schedule Day 7,                         !- WinterDesignDay Schedule:Day Name
  Schedule Day 7,                         !- CustomDay1 Schedule:Day Name
  Schedule Day 7;                         !- CustomDay2 Schedule:Day Name

Schedule:Year,
  Computadores e demais equipamentos,     !- Name
  Fractional,                             !- Schedule Type Limits Name
  Computadores e demais equipamentos Week Rule - Jan1-Jan3, !- Schedule:Week Name 1
  1,                                      !- Start Month 1
  1,                                      !- Start Day 1
  1,                                      !- End Month 1
  3,                                      !- End Day 1
  Computadores e demais equipamentos Week Rule - Jan4-Dec31, !- Schedule:Week Name 2
  1,                                      !- Start Month 2
  4,                                      !- Start Day 2
  12,                                     !- End Month 2
  31;                                     !- End Day 2

ZoneInfiltration:DesignFlowRate,
  Space Infiltration Design Flow Rate 1,  !- Name
  P1_0_0,                                 !- Zone or ZoneList or Space or SpaceList Name
  Always On Discrete,                     !- Schedule Name
  AirChanges/Hour,                        !- Design Flow Rate Calculation Method
  ,                                       !- Design Flow Rate {m3/s}
  ,                                       !- Flow Rate per Floor Area {m3/s-m2}
  ,                                       !- Flow Rate per Exterior Surface Area {m3/s-m2}
  0.15,                                   !- Air Changes per Hour {1/hr}
  ,                                       !- Constant Term Coefficient
  ,                                       !- Temperature Term Coefficient
  ,                                       !- Velocity Term Coefficient
  ,                                       !- Velocity Squared Term Coefficient
  Outdoor;                                !- Density Basis

ZoneControl:Thermostat,
  Zona P1_0_0 Thermostat,                 !- Name
  Zona P1_0_0,                            !- Zone or ZoneList Name
  Zona P1_0_0 Thermostat Schedule,        !- Control Type Schedule Name
  ThermostatSetpoint:DualSetpoint,        !- Control 1 Object Type
  Thermostat Setpoint Dual Setpoint 1,    !- Control 1 Name
  ,                                       !- Control 2 Object Type
  ,                                       !- Control 2 Name
  ,                                       !- Control 3 Object Type
  ,                                       !- Control 3 Name
  ,                                       !- Control 4 Object Type
  ,                                       !- Control 4 Name
  0;                                      !- Temperature Difference Between Cutout And Setpoint {deltaC}

Schedule:Compact,
  Zona P1_0_0 Thermostat Schedule,        !- Name
  Zona P1_0_0 Thermostat Schedule Type Limits, !- Schedule Type Limits Name
  Through: 12/31,                         !- Field 1
  For: AllDays,                           !- Field 2
  Until: 24:00,                           !- Field 3
  4;                                      !- Field 4

ScheduleTypeLimits,
  Zona P1_0_0 Thermostat Schedule Type Limits, !- Name
  0,                                      !- Lower Limit Value {BasedOnField A3}
  4,                                      !- Upper Limit Value {BasedOnField A3}
  DISCRETE;                               !- Numeric Type

ThermostatSetpoint:DualSetpoint,
  Thermostat Setpoint Dual Setpoint 1,    !- Name
  Aquecimento 20C,                        !- Heating Setpoint Temperature Schedule Name
  Resfriamento 24C;                       !- Cooling Setpoint Temperature Schedule Name

ScheduleTypeLimits,
  Temperature,                            !- Name
  ,                                       !- Lower Limit Value {BasedOnField A3}
  ,                                       !- Upper Limit Value {BasedOnField A3}
  Continuous,                             !- Numeric Type
  temperature;                            !- Unit Type

Schedule:Day:Interval,
  Schedule Day 16,                        !- Name
  Temperature,                            !- Schedule Type Limits Name
  No,                                     !- Interpolate to Timestep
  07:00,                                  !- Time 1 {hh:mm}
  15,                                     !- Value Until Time 1
  22:00,                                  !- Time 2 {hh:mm}
  20,                                     !- Value Until Time 2
  24:00,                                  !- Time 3 {hh:mm}
  15;                                     !- Value Until Time 3

Schedule:Day:Interval,
  Schedule Day 17,                        !- Name
  Temperature,                            !- Schedule Type Limits Name
  No,                                     !- Interpolate to Timestep
  08:00,                                  !- Time 1 {hh:mm}
  15,                                     !- Value Until Time 1
  16:00,                                  !- Time 2 {hh:mm}
  20,                                     !- Value Until Time 2
  24:00,                                  !- Time 3 {hh:mm}
  15;                                     !- Value Until Time 3

Schedule:Day:Interval,
  Schedule Day 18,                        !- Name
  Temperature,                            !- Schedule Type Limits Name
  No,                                     !- Interpolate to Timestep
  24:00,                                  !- Time 1 {hh:mm}
  15;                                     !- Value Until Time 1

Schedule:Week:Daily,
  Aquecimento 20C Week Rule - Jan1-Jan3,  !- Name
  Schedule Day 16,                        !- Sunday Schedule:Day Name
  Schedule Day 16,                        !- Monday Schedule:Day Name
  Schedule Day 16,                        !- Tuesday Schedule:Day Name
  Schedule Day 16,                        !- Wednesday Schedule:Day Name
  Schedule Day 16,                        !- Thursday Schedule:Day Name
  Schedule Day 16,                        !- Friday Schedule:Day Name
  Schedule Day 17,                        !- Saturday Schedule:Day Name
  Schedule Day 16,                        !- Holiday Schedule:Day Name
  Schedule Day 16,                        !- SummerDesignDay Schedule:Day Name
  Schedule Day 16,                        !- WinterDesignDay Schedule:Day Name
  Schedule Day 16,                        !- CustomDay1 Schedule:Day Name
  Schedule Day 16;                        !- CustomDay2 Schedule:Day Name

Schedule:Week:Daily,
  Aquecimento 20C Week Rule - Jan4-Dec31, !- Name
  Schedule Day 18,                        !- Sunday Schedule:Day Name
  Schedule Day 16,                        !- Monday Schedule:Day Name
  Schedule Day 16,                        !- Tuesday Schedule:Day Name
  Schedule Day 16,                        !- Wednesday Schedule:Day Name
  Schedule Day 16,                        !- Thursday Schedule:Day Name
  Schedule Day 16,                        !- Friday Schedule:Day Name
  Schedule Day 17,                        !- Saturday Schedule:Day Name
  Schedule Day 16,                        !- Holiday Schedule:Day Name
  Schedule Day 16,                        !- SummerDesignDay Schedule:Day Name
  Schedule Day 16,                        !- WinterDesignDay Schedule:Day Name
  Schedule Day 16,                        !- CustomDay1 Schedule:Day Name
  Schedule Day 16;                        !- CustomDay2 Schedule:Day Name

Schedule:Year,
  Aquecimento 20C,                        !- Name
  Temperature,                            !- Schedule Type Limits Name
  Aquecimento 20C Week Rule - Jan1-Jan3,  !- Schedule:Week Name 1
  1,                                      !- Start Month 1
  1,                                      !- Start Day 1
  1,                                      !- End Month 1
  3,                                      !- End Day 1
  Aquecimento 20C Week Rule - Jan4-Dec31, !- Schedule:Week Name 2
  1,                                      !- Start Month 2
  4,                                      !- Start Day 2
  12,                                     !- End Month 2
  31;                                     !- End Day 2

Schedule:Day:Interval,
  Schedule Day 13,                        !- Name
  Temperature,                            !- Schedule Type Limits Name
  No,                                     !- Interpolate to Timestep
  07:00,                                  !- Time 1 {hh:mm}
  30,                                     !- Value Until Time 1
  22:00,                                  !- Time 2 {hh:mm}
  24,                                     !- Value Until Time 2
  24:00,                                  !- Time 3 {hh:mm}
  30;                                     !- Value Until Time 3

Schedule:Day:Interval,
  Schedule Day 14,                        !- Name
  Temperature,                            !- Schedule Type Limits Name
  No,                                     !- Interpolate to Timestep
  08:00,                                  !- Time 1 {hh:mm}
  30,                                     !- Value Until Time 1
  16:00,                                  !- Time 2 {hh:mm}
  24,                                     !- Value Until Time 2
  24:00,                                  !- Time 3 {hh:mm}
  30;                                     !- Value Until Time 3

Schedule:Day:Interval,
  Schedule Day 15,                        !- Name
  Temperature,                            !- Schedule Type Limits Name
  No,                                     !- Interpolate to Timestep
  24:00,                                  !- Time 1 {hh:mm}
  30;                                     !- Value Until Time 1

Schedule:Week:Daily,
  Resfriamento 24C Week Rule - Jan1-Jan3, !- Name
  Schedule Day 13,                        !- Sunday Schedule:Day Name
  Schedule Day 13,                        !- Monday Schedule:Day Name
  Schedule Day 13,                        !- Tuesday Schedule:Day Name
  Schedule Day 13,                        !- Wednesday Schedule:Day Name
  Schedule Day 13,                        !- Thursday Schedule:Day Name
  Schedule Day 13,                        !- Friday Schedule:Day Name
  Schedule Day 14,                        !- Saturday Schedule:Day Name
  Schedule Day 13,                        !- Holiday Schedule:Day Name
  Schedule Day 13,                        !- SummerDesignDay Schedule:Day Name
  Schedule Day 13,                        !- WinterDesignDay Schedule:Day Name
  Schedule Day 13,                        !- CustomDay1 Schedule:Day Name
  Schedule Day 13;                        !- CustomDay2 Schedule:Day Name

Schedule:Week:Daily,
  Resfriamento 24C Week Rule - Jan4-Dec31, !- Name
  Schedule Day 15,                        !- Sunday Schedule:Day Name
  Schedule Day 13,                        !- Monday Schedule:Day Name
  Schedule Day 13,                        !- Tuesday Schedule:Day Name
  Schedule Day 13,                        !- Wednesday Schedule:Day Name
  Schedule Day 13,                        !- Thursday Schedule:Day Name
  Schedule Day 13,                        !- Friday Schedule:Day Name
  Schedule Day 14,                        !- Saturday Schedule:Day Name
  Schedule Day 13,                        !- Holiday Schedule:Day Name
  Schedule Day 13,                        !- SummerDesignDay Schedule:Day Name
  Schedule Day 13,                        !- WinterDesignDay Schedule:Day Name
  Schedule Day 13,                        !- CustomDay1 Schedule:Day Name
  Schedule Day 13;                        !- CustomDay2 Schedule:Day Name

Schedule:Year,
  Resfriamento 24C,                       !- Name
  Temperature,                            !- Schedule Type Limits Name
  Resfriamento 24C Week Rule - Jan1-Jan3, !- Schedule:Week Name 1
  1,                                      !- Start Month 1
  1,                                      !- Start Day 1
  1,                                      !- End Month 1
  3,                                      !- End Day 1
  Resfriamento 24C Week Rule - Jan4-Dec31, !- Schedule:Week Name 2
  1,                                      !- Start Month 2
  4,                                      !- Start Day 2
  12,                                     !- End Month 2
  31;                                     !- End Day 2

ZoneHVAC:EquipmentConnections,
  Zona P1_0_0,                            !- Zone Name
  Zona P1_0_0 Equipment List,             !- Zone Conditioning Equipment List Name
  Zona P1_0_0 Inlet Node List,            !- Zone Air Inlet Node or NodeList Name
  Zona P1_0_0 Exhaust Node List,          !- Zone Air Exhaust Node or NodeList Name
  Node 1;                                 !- Zone Air Node Name

NodeList,
  Zona P1_0_0 Inlet Node List,            !- Name
  Node 3;                                 !- Node Name 1

NodeList,
  Zona P1_0_0 Exhaust Node List,          !- Name
  Node 2;                                 !- Node Name 1

ZoneHVAC:PackagedTerminalAirConditioner,
  Ar condicionado P1_0_0,                 !- Name
  HVAC 07-22,                             !- Availability Schedule Name
  Node 2,                                 !- Air Inlet Node Name
  Node 3,                                 !- Air Outlet Node Name
  OutdoorAir:Mixer,                       !- Outdoor Air Mixer Object Type
  Ar condicionado P1_0_0 OA Mixer,        !- Outdoor Air Mixer Name
  Autosize,                               !- Cooling Supply Air Flow Rate {m3/s}
  Autosize,                               !- Heating Supply Air Flow Rate {m3/s}
  Autosize,                               !- No Load Supply Air Flow Rate {m3/s}
  Yes,                                    !- No Load Supply Air Flow Rate Control Set To Low Speed
  0.45,                                   !- Cooling Outdoor Air Flow Rate {m3/s}
  0.45,                                   !- Heating Outdoor Air Flow Rate {m3/s}
  0.45,                                   !- No Load Outdoor Air Flow Rate {m3/s}
  Fan:ConstantVolume,                     !- Supply Air Fan Object Type
  Fan Constant Volume 1,                  !- Supply Air Fan Name
  Coil:Heating:Electric,                  !- Heating Coil Object Type
  Coil Heating Electric 1,                !- Heating Coil Name
  Coil:Cooling:DX:SingleSpeed,            !- Cooling Coil Object Type
  Coil Cooling DX Single Speed 1,         !- Cooling Coil Name
  DrawThrough,                            !- Fan Placement
  Always On Discrete;                     !- Supply Air Fan Operating Mode Schedule Name

ScheduleTypeLimits,
  OnOff,                                  !- Name
  0,                                      !- Lower Limit Value {BasedOnField A3}
  1,                                      !- Upper Limit Value {BasedOnField A3}
  Discrete,                               !- Numeric Type
  availability;                           !- Unit Type

Schedule:Day:Interval,
  Schedule Day 10,                        !- Name
  OnOff,                                  !- Schedule Type Limits Name
  No,                                     !- Interpolate to Timestep
  07:00,                                  !- Time 1 {hh:mm}
  0,                                      !- Value Until Time 1
  22:00,                                  !- Time 2 {hh:mm}
  1,                                      !- Value Until Time 2
  24:00,                                  !- Time 3 {hh:mm}
  0;                                      !- Value Until Time 3

Schedule:Day:Interval,
  Schedule Day 11,                        !- Name
  OnOff,                                  !- Schedule Type Limits Name
  No,                                     !- Interpolate to Timestep
  08:00,                                  !- Time 1 {hh:mm}
  0,                                      !- Value Until Time 1
  16:00,                                  !- Time 2 {hh:mm}
  1,                                      !- Value Until Time 2
  24:00,                                  !- Time 3 {hh:mm}
  0;                                      !- Value Until Time 3

Schedule:Day:Interval,
  Schedule Day 12,                        !- Name
  OnOff,                                  !- Schedule Type Limits Name
  No,                                     !- Interpolate to Timestep
  24:00,                                  !- Time 1 {hh:mm}
  0;                                      !- Value Until Time 1

Schedule:Week:Daily,
  HVAC 07-22 Week Rule - Jan1-Jan3,       !- Name
  Schedule Day 10,                        !- Sunday Schedule:Day Name
  Schedule Day 10,                        !- Monday Schedule:Day Name
  Schedule Day 10,                        !- Tuesday Schedule:Day Name
  Schedule Day 10,                        !- Wednesday Schedule:Day Name
  Schedule Day 10,                        !- Thursday Schedule:Day Name
  Schedule Day 10,                        !- Friday Schedule:Day Name
  Schedule Day 11,                        !- Saturday Schedule:Day Name
  Schedule Day 10,                        !- Holiday Schedule:Day Name
  Schedule Day 10,                        !- SummerDesignDay Schedule:Day Name
  Schedule Day 10,                        !- WinterDesignDay Schedule:Day Name
  Schedule Day 10,                        !- CustomDay1 Schedule:Day Name
  Schedule Day 10;                        !- CustomDay2 Schedule:Day Name

Schedule:Week:Daily,
  HVAC 07-22 Week Rule - Jan4-Dec31,      !- Name
  Schedule Day 12,                        !- Sunday Schedule:Day Name
  Schedule Day 10,                        !- Monday Schedule:Day Name
  Schedule Day 10,                        !- Tuesday Schedule:Day Name
  Schedule Day 10,                        !- Wednesday Schedule:Day Name
  Schedule Day 10,                        !- Thursday Schedule:Day Name
  Schedule Day 10,                        !- Friday Schedule:Day Name
  Schedule Day 11,                        !- Saturday Schedule:Day Name
  Schedule Day 10,                        !- Holiday Schedule:Day Name
  Schedule Day 10,                        !- SummerDesignDay Schedule:Day Name
  Schedule Day 10,                        !- WinterDesignDay Schedule:Day Name
  Schedule Day 10,                        !- CustomDay1 Schedule:Day Name
  Schedule Day 10;                        !- CustomDay2 Schedule:Day Name

Schedule:Year,
  HVAC 07-22,                             !- Name
  OnOff,                                  !- Schedule Type Limits Name
  HVAC 07-22 Week Rule - Jan1-Jan3,       !- Schedule:Week Name 1
  1,                                      !- Start Month 1
  1,                                      !- Start Day 1
  1,                                      !- End Month 1
  3,                                      !- End Day 1
  HVAC 07-22 Week Rule - Jan4-Dec31,      !- Schedule:Week Name 2
  1,                                      !- Start Month 2
  4,                                      !- Start Day 2
  12,                                     !- End Month 2
  31;                                     !- End Day 2

OutdoorAir:Mixer,
  Ar condicionado P1_0_0 OA Mixer,        !- Name
  Ar condicionado P1_0_0 Mixed Air Node,  !- Mixed Air Node Name
  Ar condicionado P1_0_0 OA Node,         !- Outdoor Air Stream Node Name
  Ar condicionado P1_0_0 Relief Air Node, !- Relief Air Stream Node Name
  Node 2;                                 !- Return Air Stream Node Name

OutdoorAir:NodeList,
  Ar condicionado P1_0_0 OA Node;         !- Node or NodeList Name 1

Schedule:Constant,
  Always On Discrete,                     !- Name
  OnOff,                                  !- Schedule Type Limits Name
  1;                                      !- Hourly Value

Fan:ConstantVolume,
  Fan Constant Volume 1,                  !- Name
  Always On Discrete,                     !- Availability Schedule Name
  0.6,                                    !- Fan Total Efficiency
  350,                                    !- Pressure Rise {Pa}
  AutoSize,                               !- Maximum Flow Rate {m3/s}
  0.9,                                    !- Motor Efficiency
  1,                                      !- Motor In Airstream Fraction
  Ar condicionado P1_0_0 Heating Coil Outlet Node, !- Air Inlet Node Name
  Node 3,                                 !- Air Outlet Node Name
  ;                                       !- End-Use Subcategory

Coil:Heating:Electric,
  Coil Heating Electric 1,                !- Name
  Always On Discrete,                     !- Availability Schedule Name
  1,                                      !- Efficiency
  Autosize,                               !- Nominal Capacity {W}
  Ar condicionado P1_0_0 Cooling Coil Outlet Node, !- Air Inlet Node Name
  Ar condicionado P1_0_0 Heating Coil Outlet Node; !- Air Outlet Node Name

Curve:Biquadratic,
  Curve Biquadratic 1,                    !- Name
  0.942587793,                            !- Coefficient1 Constant
  0.009543347,                            !- Coefficient2 x
  0.00068377,                             !- Coefficient3 x**2
  -0.011042676,                           !- Coefficient4 y
  5.249e-06,                              !- Coefficient5 y**2
  -9.72e-06,                              !- Coefficient6 x*y
  17,                                     !- Minimum Value of x {BasedOnField A2}
  22,                                     !- Maximum Value of x {BasedOnField A2}
  13,                                     !- Minimum Value of y {BasedOnField A3}
  46;                                     !- Maximum Value of y {BasedOnField A3}

Curve:Quadratic,
  Curve Quadratic 1,                      !- Name
  0.8,                                    !- Coefficient1 Constant
  0.2,                                    !- Coefficient2 x
  0,                                      !- Coefficient3 x**2
  0.5,                                    !- Minimum Value of x {BasedOnField A2}
  1.5;                                    !- Maximum Value of x {BasedOnField A2}

Curve:Biquadratic,
  Curve Biquadratic 2,                    !- Name
  0.342414409,                            !- Coefficient1 Constant
  0.034885008,                            !- Coefficient2 x
  -0.0006237,                             !- Coefficient3 x**2
  0.004977216,                            !- Coefficient4 y
  0.000437951,                            !- Coefficient5 y**2
  -0.000728028,                           !- Coefficient6 x*y
  17,                                     !- Minimum Value of x {BasedOnField A2}
  22,                                     !- Maximum Value of x {BasedOnField A2}
  13,                                     !- Minimum Value of y {BasedOnField A3}
  46;                                     !- Maximum Value of y {BasedOnField A3}

Curve:Quadratic,
  Curve Quadratic 2,                      !- Name
  1.1552,                                 !- Coefficient1 Constant
  -0.1808,                                !- Coefficient2 x
  0.0256,                                 !- Coefficient3 x**2
  0.5,                                    !- Minimum Value of x {BasedOnField A2}
  1.5;                                    !- Maximum Value of x {BasedOnField A2}

Curve:Quadratic,
  Curve Quadratic 3,                      !- Name
  0.85,                                   !- Coefficient1 Constant
  0.15,                                   !- Coefficient2 x
  0,                                      !- Coefficient3 x**2
  0,                                      !- Minimum Value of x {BasedOnField A2}
  1;                                      !- Maximum Value of x {BasedOnField A2}

Coil:Cooling:DX:SingleSpeed,
  Coil Cooling DX Single Speed 1,         !- Name
  Always On Discrete,                     !- Availability Schedule Name
  Autosize,                               !- Gross Rated Total Cooling Capacity {W}
  Autosize,                               !- Gross Rated Sensible Heat Ratio
  3.2,                                    !- Gross Rated Cooling COP {W/W}
  Autosize,                               !- Rated Air Flow Rate {m3/s}
  773.3,                                  !- Rated Evaporator Fan Power Per Volume Flow Rate 2017 {W/(m3/s)}
  934.4,                                  !- Rated Evaporator Fan Power Per Volume Flow Rate 2023 {W/(m3/s)}
  Ar condicionado P1_0_0 Mixed Air Node,  !- Air Inlet Node Name
  Ar condicionado P1_0_0 Cooling Coil Outlet Node, !- Air Outlet Node Name
  Curve Biquadratic 1,                    !- Total Cooling Capacity Function of Temperature Curve Name
  Curve Quadratic 1,                      !- Total Cooling Capacity Function of Flow Fraction Curve Name
  Curve Biquadratic 2,                    !- Energy Input Ratio Function of Temperature Curve Name
  Curve Quadratic 2,                      !- Energy Input Ratio Function of Flow Fraction Curve Name
  Curve Quadratic 3,                      !- Part Load Fraction Correlation Curve Name
  -25,                                    !- Minimum Outdoor Dry-Bulb Temperature for Compressor Operation {C}
  0,                                      !- Nominal Time for Condensate Removal to Begin {s}
  0,                                      !- Ratio of Initial Moisture Evaporation Rate and Steady State Latent Capacity {dimensionless}
  0,                                      !- Maximum Cycling Rate {cycles/hr}
  0,                                      !- Latent Capacity Time Constant {s}
  ,                                       !- Condenser Air Inlet Node Name
  AirCooled,                              !- Condenser Type
  0.9,                                    !- Evaporative Condenser Effectiveness {dimensionless}
  Autosize,                               !- Evaporative Condenser Air Flow Rate {m3/s}
  Autosize,                               !- Evaporative Condenser Pump Rated Power Consumption {W}
  0,                                      !- Crankcase Heater Capacity {W}
  ,                                       !- Crankcase Heater Capacity Function of Temperature Curve Name
  10,                                     !- Maximum Outdoor Dry-Bulb Temperature for Crankcase Heater Operation {C}
  ,                                       !- Supply Water Storage Tank Name
  ,                                       !- Condensate Collection Water Storage Tank Name
  0,                                      !- Basin Heater Capacity {W/K}
  2;                                      !- Basin Heater Setpoint Temperature {C}

ZoneHVAC:EquipmentList,
  Zona P1_0_0 Equipment List,             !- Name
  SequentialLoad,                         !- Load Distribution Scheme
  ZoneHVAC:PackagedTerminalAirConditioner, !- Zone Equipment Object Type 1
  Ar condicionado P1_0_0,                 !- Zone Equipment Name 1
  1,                                      !- Zone Equipment Cooling Sequence 1
  1,                                      !- Zone Equipment Heating or No-Load Sequence 1
  ,                                       !- Zone Equipment Sequential Cooling Fraction Schedule Name 1
  ;                                       !- Zone Equipment Sequential Heating Fraction Schedule Name 1

Sizing:Zone,
  Zona P1_0_0,                            !- Zone or ZoneList Name
  SupplyAirTemperature,                   !- Zone Cooling Design Supply Air Temperature Input Method
  14,                                     !- Zone Cooling Design Supply Air Temperature {C}
  11.11,                                  !- Zone Cooling Design Supply Air Temperature Difference {deltaC}
  SupplyAirTemperature,                   !- Zone Heating Design Supply Air Temperature Input Method
  40,                                     !- Zone Heating Design Supply Air Temperature {C}
  11.11,                                  !- Zone Heating Design Supply Air Temperature Difference {deltaC}
  0.0085,                                 !- Zone Cooling Design Supply Air Humidity Ratio {kgWater/kgDryAir}
  0.008,                                  !- Zone Heating Design Supply Air Humidity Ratio {kgWater/kgDryAir}
  Design Specification Outdoor Air 1,     !- Design Specification Outdoor Air Object Name
  ,                                       !- Zone Heating Sizing Factor
  ,                                       !- Zone Cooling Sizing Factor
  DesignDay,                              !- Cooling Design Air Flow Method
  0,                                      !- Cooling Design Air Flow Rate {m3/s}
  0.000762,                               !- Cooling Minimum Air Flow per Zone Floor Area {m3/s-m2}
  0,                                      !- Cooling Minimum Air Flow {m3/s}
  0,                                      !- Cooling Minimum Air Flow Fraction
  DesignDay,                              !- Heating Design Air Flow Method
  0,                                      !- Heating Design Air Flow Rate {m3/s}
  0.002032,                               !- Heating Maximum Air Flow per Zone Floor Area {m3/s-m2}
  0.1415762,                              !- Heating Maximum Air Flow {m3/s}
  0.3,                                    !- Heating Maximum Air Flow Fraction
  ,                                       !- Design Specification Zone Air Distribution Object Name
  No,                                     !- Account for Dedicated Outdoor Air System
  ,                                       !- Dedicated Outdoor Air System Control Strategy
  ,                                       !- Dedicated Outdoor Air Low Setpoint Temperature for Design {C}
  ,                                       !- Dedicated Outdoor Air High Setpoint Temperature for Design {C}
  Sensible Load Only No Latent Load,      !- Zone Load Sizing Method
  HumidityRatioDifference,                !- Zone Latent Cooling Design Supply Air Humidity Ratio Input Method
  ,                                       !- Zone Dehumidification Design Supply Air Humidity Ratio {kgWater/kgDryAir}
  0.005,                                  !- Zone Cooling Design Supply Air Humidity Ratio Difference {kgWater/kgDryAir}
  HumidityRatioDifference,                !- Zone Latent Heating Design Supply Air Humidity Ratio Input Method
  ,                                       !- Zone Humidification Design Supply Air Humidity Ratio {kgWater/kgDryAir}
  0.005,                                  !- Zone Humidification Design Supply Air Humidity Ratio Difference {kgWater/kgDryAir}
  ,                                       !- Zone Humidistat Dehumidification Set Point Schedule Name
  ,                                       !- Zone Humidistat Humidification Set Point Schedule Name
  Coincident,                             !- Type of Space Sum to Use
  None,                                   !- Heating Coil Sizing Method
  1;                                      !- Maximum Heating Capacity To Cooling Load Sizing Ratio {W/W}

DesignSpecification:OutdoorAir,
  Design Specification Outdoor Air 1,     !- Name
  Sum,                                    !- Outdoor Air Method
  0.0075,                                 !- Outdoor Air Flow per Person {m3/s-person}
  0.0003,                                 !- Outdoor Air Flow per Zone Floor Area {m3/s-m2}
  0,                                      !- Outdoor Air Flow per Zone {m3/s}
  0;                                      !- Outdoor Air Flow Air Changes per Hour {1/hr}

Zone,
  Zona P1_0_1,                            !- Name
  ,                                       !- Direction of Relative North {deg}
  0,                                      !- X Origin {m}
  0,                                      !- Y Origin {m}
  0,                                      !- Z Origin {m}
  ,                                       !- Type
  1,                                      !- Multiplier
  ,                                       !- Ceiling Height {m}
  ,                                       !- Volume {m3}
  ,                                       !- Floor Area {m2}
  ,                                       !- Zone Inside Convection Algorithm
  ,                                       !- Zone Outside Convection Algorithm
  Yes;                                    !- Part of Total Floor Area

Space,
  P1_0_1,                                 !- Name
  Zona P1_0_1,                            !- Zone Name
  ,                                       !- Ceiling Height {m}
  ,                                       !- Volume {m3}
  ;                                       !- Floor Area {m2}

BuildingSurface:Detailed,
  Surface 10,                             !- Name
  Wall,                                   !- Surface Type
  Alvenaria rebocada,                     !- Construction Name
  Zona P1_0_1,                            !- Zone Name
  P1_0_1,                                 !- Space Name
  Surface,                                !- Outside Boundary Condition
  Surface 20,                             !- Outside Boundary Condition Object
  NoSun,                                  !- Sun Exposure
  NoWind,                                 !- Wind Exposure
  ,                                       !- View Factor to Ground
  ,                                       !- Number of Vertices
  25, 40, 3.5,                            !- X,Y,Z Vertex 1 {m}
  25, 20, 3.5,                            !- X,Y,Z Vertex 2 {m}
  25, 20, 0,                              !- X,Y,Z Vertex 3 {m}
  25, 40, 0;                              !- X,Y,Z Vertex 4 {m}

BuildingSurface:Detailed,
  Surface 11,                             !- Name
  Wall,                                   !- Surface Type
  Alvenaria rebocada,                     !- Construction Name
  Zona P1_0_1,                            !- Zone Name
  P1_0_1,                                 !- Space Name
  Surface,                                !- Outside Boundary Condition
  Surface 3,                              !- Outside Boundary Condition Object
  NoSun,                                  !- Sun Exposure
  NoWind,                                 !- Wind Exposure
  ,                                       !- View Factor to Ground
  ,                                       !- Number of Vertices
  25, 20, 3.5,                            !- X,Y,Z Vertex 1 {m}
  0, 20, 3.5,                             !- X,Y,Z Vertex 2 {m}
  0, 20, 0,                               !- X,Y,Z Vertex 3 {m}
  25, 20, 0;                              !- X,Y,Z Vertex 4 {m}

BuildingSurface:Detailed,
  Surface 12,                             !- Name
  Ceiling,                                !- Surface Type
  Laje concreto,                          !- Construction Name
  Zona P1_0_1,                            !- Zone Name
  P1_0_1,                                 !- Space Name
  Surface,                                !- Outside Boundary Condition
  Surface 31,                             !- Outside Boundary Condition Object
  NoSun,                                  !- Sun Exposure
  NoWind,                                 !- Wind Exposure
  ,                                       !- View Factor to Ground
  ,                                       !- Number of Vertices
  25, 20, 3.5,                            !- X,Y,Z Vertex 1 {m}
  25, 40, 3.5,                            !- X,Y,Z Vertex 2 {m}
  0, 40, 3.5,                             !- X,Y,Z Vertex 3 {m}
  0, 20, 3.5;                             !- X,Y,Z Vertex 4 {m}

BuildingSurface:Detailed,
  Surface 7,                              !- Name
  Floor,                                  !- Surface Type
  Laje concreto,                          !- Construction Name
  Zona P1_0_1,                            !- Zone Name
  P1_0_1,                                 !- Space Name
  Ground,                                 !- Outside Boundary Condition
  ,                                       !- Outside Boundary Condition Object
  NoSun,                                  !- Sun Exposure
  NoWind,                                 !- Wind Exposure
  ,                                       !- View Factor to Ground
  ,                                       !- Number of Vertices
  0, 20, 0,                               !- X,Y,Z Vertex 1 {m}
  0, 40, 0,                               !- X,Y,Z Vertex 2 {m}
  25, 40, 0,                              !- X,Y,Z Vertex 3 {m}
  25, 20, 0;                              !- X,Y,Z Vertex 4 {m}

BuildingSurface:Detailed,
  Surface 8,                              !- Name
  Wall,                                   !- Surface Type
  Alvenaria rebocada,                     !- Construction Name
  Zona P1_0_1,                            !- Zone Name
  P1_0_1,                                 !- Space Name
  Outdoors,                               !- Outside Boundary Condition
  ,                                       !- Outside Boundary Condition Object
  SunExposed,                             !- Sun Exposure
  WindExposed,                            !- Wind Exposure
  ,                                       !- View Factor to Ground
  ,                                       !- Number of Vertices
  0, 20, 3.5,                             !- X,Y,Z Vertex 1 {m}
  0, 40, 3.5,                             !- X,Y,Z Vertex 2 {m}
  0, 40, 0,                               !- X,Y,Z Vertex 3 {m}
  0, 20, 0;                               !- X,Y,Z Vertex 4 {m}

FenestrationSurface:Detailed,
  Sub Surface 1,                          !- Name
  Window,                                 !- Surface Type
  Vidro U3 SHGC0.4,                       !- Construction Name
  Surface 8,                              !- Building Surface Name
  ,                                       !- Outside Boundary Condition Object
  ,                                       !- View Factor to Ground
  ,                                       !- Frame and Divider Name
  ,                                       !- Multiplier
  ,                                       !- Number of Vertices
  0, 39.9746, 1.81467379143023,           !- X,Y,Z Vertex 1 {m}
  0, 39.9746, 0.762,                      !- X,Y,Z Vertex 2 {m}
  0, 20.0254, 0.762,                      !- X,Y,Z Vertex 3 {m}
  0, 20.0254, 1.81467379143023;           !- X,Y,Z Vertex 4 {m}

BuildingSurface:Detailed,
  Surface 9,                              !- Name
  Wall,                                   !- Surface Type
  Alvenaria rebocada,                     !- Construction Name
  Zona P1_0_1,                            !- Zone Name
  P1_0_1,                                 !- Space Name
  Outdoors,                               !- Outside Boundary Condition
  ,                                       !- Outside Boundary Condition Object
  SunExposed,                             !- Sun Exposure
  WindExposed,                            !- Wind Exposure
  ,                                       !- View Factor to Ground
  ,                                       !- Number of Vertices
  0, 40, 3.5,                             !- X,Y,Z Vertex 1 {m}
  25, 40, 3.5,                            !- X,Y,Z Vertex 2 {m}
  25, 40, 0,                              !- X,Y,Z Vertex 3 {m}
  0, 40, 0;                               !- X,Y,Z Vertex 4 {m}

FenestrationSurface:Detailed,
  Sub Surface 7,                          !- Name
  Window,                                 !- Surface Type
  Vidro U3 SHGC0.4,                       !- Construction Name
  Surface 9,                              !- Building Surface Name
  ,                                       !- Outside Boundary Condition Object
  ,                                       !- View Factor to Ground
  ,                                       !- Frame and Divider Name
  ,                                       !- Multiplier
  ,                                       !- Number of Vertices
  24.9746, 40, 1.81413794430282,          !- X,Y,Z Vertex 1 {m}
  24.9746, 40, 0.762,                     !- X,Y,Z Vertex 2 {m}
  0.0253999999999976, 40, 0.762,          !- X,Y,Z Vertex 3 {m}
  0.0253999999999976, 40, 1.81413794430282; !- X,Y,Z Vertex 4 {m}

Lights,
  Lights 2,                               !- Name
  P1_0_1,                                 !- Zone or ZoneList or Space or SpaceList Name
  Iluminacao,                             !- Schedule Name
  Watts/Area,                             !- Design Level Calculation Method
  ,                                       !- Lighting Level {W}
  8,                                      !- Watts per Floor Area {W/m2}
  ,                                       !- Watts per Person {W/person}
  ,                                       !- Return Air Fraction
  ,                                       !- Fraction Radiant
  ,                                       !- Fraction Visible
  1,                                      !- Fraction Replaceable
  General;                                !- End-Use Subcategory

People,
  People 2,                               !- Name
  P1_0_1,                                 !- Zone or ZoneList or Space or SpaceList Name
  Ocupacao,                               !- Number of People Schedule Name
  People/Area,                            !- Number of People Calculation Method
  ,                                       !- Number of People
  0.08,                                   !- People per Floor Area {person/m2}
  ,                                       !- Floor Area per Person {m2/person}
  0.3,                                    !- Fraction Radiant
  ,                                       !- Sensible Heat Fraction
  Atividade sedentaria 120 W pessoa,      !- Activity Level Schedule Name
  ,                                       !- Carbon Dioxide Generation Rate {m3/s-W}
  ,                                       !- Enable ASHRAE 55 Comfort Warnings
  ,                                       !- Mean Radiant Temperature Calculation Type
  ,                                       !- Surface Name/Angle Factor List Name
  ,                                       !- Work Efficiency Schedule Name
  ClothingInsulationSchedule;             !- Clothing Insulation Calculation Method

ElectricEquipment,
  Electric Equipment 2,                   !- Name
  P1_0_1,                                 !- Zone or ZoneList or Space or SpaceList Name
  Computadores e demais equipamentos,     !- Schedule Name
  Watts/Area,                             !- Design Level Calculation Method
  ,                                       !- Design Level {W}
  12,                                     !- Watts per Floor Area {W/m2}
  ,                                       !- Watts per Person {W/person}
  ,                                       !- Fraction Latent
  ,                                       !- Fraction Radiant
  ,                                       !- Fraction Lost
  Computadores e cargas de escritorio;    !- End-Use Subcategory

ZoneInfiltration:DesignFlowRate,
  Space Infiltration Design Flow Rate 2,  !- Name
  P1_0_1,                                 !- Zone or ZoneList or Space or SpaceList Name
  Always On Discrete,                     !- Schedule Name
  AirChanges/Hour,                        !- Design Flow Rate Calculation Method
  ,                                       !- Design Flow Rate {m3/s}
  ,                                       !- Flow Rate per Floor Area {m3/s-m2}
  ,                                       !- Flow Rate per Exterior Surface Area {m3/s-m2}
  0.15,                                   !- Air Changes per Hour {1/hr}
  ,                                       !- Constant Term Coefficient
  ,                                       !- Temperature Term Coefficient
  ,                                       !- Velocity Term Coefficient
  ,                                       !- Velocity Squared Term Coefficient
  Outdoor;                                !- Density Basis

ZoneControl:Thermostat,
  Zona P1_0_1 Thermostat,                 !- Name
  Zona P1_0_1,                            !- Zone or ZoneList Name
  Zona P1_0_1 Thermostat Schedule,        !- Control Type Schedule Name
  ThermostatSetpoint:DualSetpoint,        !- Control 1 Object Type
  Thermostat Setpoint Dual Setpoint 2,    !- Control 1 Name
  ,                                       !- Control 2 Object Type
  ,                                       !- Control 2 Name
  ,                                       !- Control 3 Object Type
  ,                                       !- Control 3 Name
  ,                                       !- Control 4 Object Type
  ,                                       !- Control 4 Name
  0;                                      !- Temperature Difference Between Cutout And Setpoint {deltaC}

Schedule:Compact,
  Zona P1_0_1 Thermostat Schedule,        !- Name
  Zona P1_0_1 Thermostat Schedule Type Limits, !- Schedule Type Limits Name
  Through: 12/31,                         !- Field 1
  For: AllDays,                           !- Field 2
  Until: 24:00,                           !- Field 3
  4;                                      !- Field 4

ScheduleTypeLimits,
  Zona P1_0_1 Thermostat Schedule Type Limits, !- Name
  0,                                      !- Lower Limit Value {BasedOnField A3}
  4,                                      !- Upper Limit Value {BasedOnField A3}
  DISCRETE;                               !- Numeric Type

ThermostatSetpoint:DualSetpoint,
  Thermostat Setpoint Dual Setpoint 2,    !- Name
  Aquecimento 20C,                        !- Heating Setpoint Temperature Schedule Name
  Resfriamento 24C;                       !- Cooling Setpoint Temperature Schedule Name

ZoneHVAC:EquipmentConnections,
  Zona P1_0_1,                            !- Zone Name
  Zona P1_0_1 Equipment List,             !- Zone Conditioning Equipment List Name
  Zona P1_0_1 Inlet Node List,            !- Zone Air Inlet Node or NodeList Name
  Zona P1_0_1 Exhaust Node List,          !- Zone Air Exhaust Node or NodeList Name
  Node 4;                                 !- Zone Air Node Name

NodeList,
  Zona P1_0_1 Inlet Node List,            !- Name
  Node 6;                                 !- Node Name 1

NodeList,
  Zona P1_0_1 Exhaust Node List,          !- Name
  Node 5;                                 !- Node Name 1

ZoneHVAC:PackagedTerminalAirConditioner,
  Ar condicionado P1_0_1,                 !- Name
  HVAC 07-22,                             !- Availability Schedule Name
  Node 5,                                 !- Air Inlet Node Name
  Node 6,                                 !- Air Outlet Node Name
  OutdoorAir:Mixer,                       !- Outdoor Air Mixer Object Type
  Ar condicionado P1_0_1 OA Mixer,        !- Outdoor Air Mixer Name
  Autosize,                               !- Cooling Supply Air Flow Rate {m3/s}
  Autosize,                               !- Heating Supply Air Flow Rate {m3/s}
  Autosize,                               !- No Load Supply Air Flow Rate {m3/s}
  Yes,                                    !- No Load Supply Air Flow Rate Control Set To Low Speed
  0.45,                                   !- Cooling Outdoor Air Flow Rate {m3/s}
  0.45,                                   !- Heating Outdoor Air Flow Rate {m3/s}
  0.45,                                   !- No Load Outdoor Air Flow Rate {m3/s}
  Fan:ConstantVolume,                     !- Supply Air Fan Object Type
  Fan Constant Volume 2,                  !- Supply Air Fan Name
  Coil:Heating:Electric,                  !- Heating Coil Object Type
  Coil Heating Electric 2,                !- Heating Coil Name
  Coil:Cooling:DX:SingleSpeed,            !- Cooling Coil Object Type
  Coil Cooling DX Single Speed 2,         !- Cooling Coil Name
  DrawThrough,                            !- Fan Placement
  Always On Discrete;                     !- Supply Air Fan Operating Mode Schedule Name

OutdoorAir:Mixer,
  Ar condicionado P1_0_1 OA Mixer,        !- Name
  Ar condicionado P1_0_1 Mixed Air Node,  !- Mixed Air Node Name
  Ar condicionado P1_0_1 OA Node,         !- Outdoor Air Stream Node Name
  Ar condicionado P1_0_1 Relief Air Node, !- Relief Air Stream Node Name
  Node 5;                                 !- Return Air Stream Node Name

OutdoorAir:NodeList,
  Ar condicionado P1_0_1 OA Node;         !- Node or NodeList Name 1

Fan:ConstantVolume,
  Fan Constant Volume 2,                  !- Name
  Always On Discrete,                     !- Availability Schedule Name
  0.6,                                    !- Fan Total Efficiency
  350,                                    !- Pressure Rise {Pa}
  AutoSize,                               !- Maximum Flow Rate {m3/s}
  0.9,                                    !- Motor Efficiency
  1,                                      !- Motor In Airstream Fraction
  Ar condicionado P1_0_1 Heating Coil Outlet Node, !- Air Inlet Node Name
  Node 6,                                 !- Air Outlet Node Name
  ;                                       !- End-Use Subcategory

Coil:Heating:Electric,
  Coil Heating Electric 2,                !- Name
  Always On Discrete,                     !- Availability Schedule Name
  1,                                      !- Efficiency
  Autosize,                               !- Nominal Capacity {W}
  Ar condicionado P1_0_1 Cooling Coil Outlet Node, !- Air Inlet Node Name
  Ar condicionado P1_0_1 Heating Coil Outlet Node; !- Air Outlet Node Name

Curve:Biquadratic,
  Curve Biquadratic 3,                    !- Name
  0.942587793,                            !- Coefficient1 Constant
  0.009543347,                            !- Coefficient2 x
  0.00068377,                             !- Coefficient3 x**2
  -0.011042676,                           !- Coefficient4 y
  5.249e-06,                              !- Coefficient5 y**2
  -9.72e-06,                              !- Coefficient6 x*y
  17,                                     !- Minimum Value of x {BasedOnField A2}
  22,                                     !- Maximum Value of x {BasedOnField A2}
  13,                                     !- Minimum Value of y {BasedOnField A3}
  46;                                     !- Maximum Value of y {BasedOnField A3}

Curve:Quadratic,
  Curve Quadratic 4,                      !- Name
  0.8,                                    !- Coefficient1 Constant
  0.2,                                    !- Coefficient2 x
  0,                                      !- Coefficient3 x**2
  0.5,                                    !- Minimum Value of x {BasedOnField A2}
  1.5;                                    !- Maximum Value of x {BasedOnField A2}

Curve:Biquadratic,
  Curve Biquadratic 4,                    !- Name
  0.342414409,                            !- Coefficient1 Constant
  0.034885008,                            !- Coefficient2 x
  -0.0006237,                             !- Coefficient3 x**2
  0.004977216,                            !- Coefficient4 y
  0.000437951,                            !- Coefficient5 y**2
  -0.000728028,                           !- Coefficient6 x*y
  17,                                     !- Minimum Value of x {BasedOnField A2}
  22,                                     !- Maximum Value of x {BasedOnField A2}
  13,                                     !- Minimum Value of y {BasedOnField A3}
  46;                                     !- Maximum Value of y {BasedOnField A3}

Curve:Quadratic,
  Curve Quadratic 5,                      !- Name
  1.1552,                                 !- Coefficient1 Constant
  -0.1808,                                !- Coefficient2 x
  0.0256,                                 !- Coefficient3 x**2
  0.5,                                    !- Minimum Value of x {BasedOnField A2}
  1.5;                                    !- Maximum Value of x {BasedOnField A2}

Curve:Quadratic,
  Curve Quadratic 6,                      !- Name
  0.85,                                   !- Coefficient1 Constant
  0.15,                                   !- Coefficient2 x
  0,                                      !- Coefficient3 x**2
  0,                                      !- Minimum Value of x {BasedOnField A2}
  1;                                      !- Maximum Value of x {BasedOnField A2}

Coil:Cooling:DX:SingleSpeed,
  Coil Cooling DX Single Speed 2,         !- Name
  Always On Discrete,                     !- Availability Schedule Name
  Autosize,                               !- Gross Rated Total Cooling Capacity {W}
  Autosize,                               !- Gross Rated Sensible Heat Ratio
  3.2,                                    !- Gross Rated Cooling COP {W/W}
  Autosize,                               !- Rated Air Flow Rate {m3/s}
  773.3,                                  !- Rated Evaporator Fan Power Per Volume Flow Rate 2017 {W/(m3/s)}
  934.4,                                  !- Rated Evaporator Fan Power Per Volume Flow Rate 2023 {W/(m3/s)}
  Ar condicionado P1_0_1 Mixed Air Node,  !- Air Inlet Node Name
  Ar condicionado P1_0_1 Cooling Coil Outlet Node, !- Air Outlet Node Name
  Curve Biquadratic 3,                    !- Total Cooling Capacity Function of Temperature Curve Name
  Curve Quadratic 4,                      !- Total Cooling Capacity Function of Flow Fraction Curve Name
  Curve Biquadratic 4,                    !- Energy Input Ratio Function of Temperature Curve Name
  Curve Quadratic 5,                      !- Energy Input Ratio Function of Flow Fraction Curve Name
  Curve Quadratic 6,                      !- Part Load Fraction Correlation Curve Name
  -25,                                    !- Minimum Outdoor Dry-Bulb Temperature for Compressor Operation {C}
  0,                                      !- Nominal Time for Condensate Removal to Begin {s}
  0,                                      !- Ratio of Initial Moisture Evaporation Rate and Steady State Latent Capacity {dimensionless}
  0,                                      !- Maximum Cycling Rate {cycles/hr}
  0,                                      !- Latent Capacity Time Constant {s}
  ,                                       !- Condenser Air Inlet Node Name
  AirCooled,                              !- Condenser Type
  0.9,                                    !- Evaporative Condenser Effectiveness {dimensionless}
  Autosize,                               !- Evaporative Condenser Air Flow Rate {m3/s}
  Autosize,                               !- Evaporative Condenser Pump Rated Power Consumption {W}
  0,                                      !- Crankcase Heater Capacity {W}
  ,                                       !- Crankcase Heater Capacity Function of Temperature Curve Name
  10,                                     !- Maximum Outdoor Dry-Bulb Temperature for Crankcase Heater Operation {C}
  ,                                       !- Supply Water Storage Tank Name
  ,                                       !- Condensate Collection Water Storage Tank Name
  0,                                      !- Basin Heater Capacity {W/K}
  2;                                      !- Basin Heater Setpoint Temperature {C}

ZoneHVAC:EquipmentList,
  Zona P1_0_1 Equipment List,             !- Name
  SequentialLoad,                         !- Load Distribution Scheme
  ZoneHVAC:PackagedTerminalAirConditioner, !- Zone Equipment Object Type 1
  Ar condicionado P1_0_1,                 !- Zone Equipment Name 1
  1,                                      !- Zone Equipment Cooling Sequence 1
  1,                                      !- Zone Equipment Heating or No-Load Sequence 1
  ,                                       !- Zone Equipment Sequential Cooling Fraction Schedule Name 1
  ;                                       !- Zone Equipment Sequential Heating Fraction Schedule Name 1

Sizing:Zone,
  Zona P1_0_1,                            !- Zone or ZoneList Name
  SupplyAirTemperature,                   !- Zone Cooling Design Supply Air Temperature Input Method
  14,                                     !- Zone Cooling Design Supply Air Temperature {C}
  11.11,                                  !- Zone Cooling Design Supply Air Temperature Difference {deltaC}
  SupplyAirTemperature,                   !- Zone Heating Design Supply Air Temperature Input Method
  40,                                     !- Zone Heating Design Supply Air Temperature {C}
  11.11,                                  !- Zone Heating Design Supply Air Temperature Difference {deltaC}
  0.0085,                                 !- Zone Cooling Design Supply Air Humidity Ratio {kgWater/kgDryAir}
  0.008,                                  !- Zone Heating Design Supply Air Humidity Ratio {kgWater/kgDryAir}
  Design Specification Outdoor Air 2,     !- Design Specification Outdoor Air Object Name
  ,                                       !- Zone Heating Sizing Factor
  ,                                       !- Zone Cooling Sizing Factor
  DesignDay,                              !- Cooling Design Air Flow Method
  0,                                      !- Cooling Design Air Flow Rate {m3/s}
  0.000762,                               !- Cooling Minimum Air Flow per Zone Floor Area {m3/s-m2}
  0,                                      !- Cooling Minimum Air Flow {m3/s}
  0,                                      !- Cooling Minimum Air Flow Fraction
  DesignDay,                              !- Heating Design Air Flow Method
  0,                                      !- Heating Design Air Flow Rate {m3/s}
  0.002032,                               !- Heating Maximum Air Flow per Zone Floor Area {m3/s-m2}
  0.1415762,                              !- Heating Maximum Air Flow {m3/s}
  0.3,                                    !- Heating Maximum Air Flow Fraction
  ,                                       !- Design Specification Zone Air Distribution Object Name
  No,                                     !- Account for Dedicated Outdoor Air System
  ,                                       !- Dedicated Outdoor Air System Control Strategy
  ,                                       !- Dedicated Outdoor Air Low Setpoint Temperature for Design {C}
  ,                                       !- Dedicated Outdoor Air High Setpoint Temperature for Design {C}
  Sensible Load Only No Latent Load,      !- Zone Load Sizing Method
  HumidityRatioDifference,                !- Zone Latent Cooling Design Supply Air Humidity Ratio Input Method
  ,                                       !- Zone Dehumidification Design Supply Air Humidity Ratio {kgWater/kgDryAir}
  0.005,                                  !- Zone Cooling Design Supply Air Humidity Ratio Difference {kgWater/kgDryAir}
  HumidityRatioDifference,                !- Zone Latent Heating Design Supply Air Humidity Ratio Input Method
  ,                                       !- Zone Humidification Design Supply Air Humidity Ratio {kgWater/kgDryAir}
  0.005,                                  !- Zone Humidification Design Supply Air Humidity Ratio Difference {kgWater/kgDryAir}
  ,                                       !- Zone Humidistat Dehumidification Set Point Schedule Name
  ,                                       !- Zone Humidistat Humidification Set Point Schedule Name
  Coincident,                             !- Type of Space Sum to Use
  None,                                   !- Heating Coil Sizing Method
  1;                                      !- Maximum Heating Capacity To Cooling Load Sizing Ratio {W/W}

DesignSpecification:OutdoorAir,
  Design Specification Outdoor Air 2,     !- Name
  Sum,                                    !- Outdoor Air Method
  0.0075,                                 !- Outdoor Air Flow per Person {m3/s-person}
  0.0003,                                 !- Outdoor Air Flow per Zone Floor Area {m3/s-m2}
  0,                                      !- Outdoor Air Flow per Zone {m3/s}
  0;                                      !- Outdoor Air Flow Air Changes per Hour {1/hr}

Zone,
  Zona P1_1_0,                            !- Name
  ,                                       !- Direction of Relative North {deg}
  0,                                      !- X Origin {m}
  0,                                      !- Y Origin {m}
  0,                                      !- Z Origin {m}
  ,                                       !- Type
  1,                                      !- Multiplier
  ,                                       !- Ceiling Height {m}
  ,                                       !- Volume {m3}
  ,                                       !- Floor Area {m2}
  ,                                       !- Zone Inside Convection Algorithm
  ,                                       !- Zone Outside Convection Algorithm
  Yes;                                    !- Part of Total Floor Area

Space,
  P1_1_0,                                 !- Name
  Zona P1_1_0,                            !- Zone Name
  ,                                       !- Ceiling Height {m}
  ,                                       !- Volume {m3}
  ;                                       !- Floor Area {m2}

BuildingSurface:Detailed,
  Surface 13,                             !- Name
  Floor,                                  !- Surface Type
  Laje concreto,                          !- Construction Name
  Zona P1_1_0,                            !- Zone Name
  P1_1_0,                                 !- Space Name
  Ground,                                 !- Outside Boundary Condition
  ,                                       !- Outside Boundary Condition Object
  NoSun,                                  !- Sun Exposure
  NoWind,                                 !- Wind Exposure
  ,                                       !- View Factor to Ground
  ,                                       !- Number of Vertices
  25, 0, 0,                               !- X,Y,Z Vertex 1 {m}
  25, 20, 0,                              !- X,Y,Z Vertex 2 {m}
  50, 20, 0,                              !- X,Y,Z Vertex 3 {m}
  50, 0, 0;                               !- X,Y,Z Vertex 4 {m}

BuildingSurface:Detailed,
  Surface 14,                             !- Name
  Wall,                                   !- Surface Type
  Alvenaria rebocada,                     !- Construction Name
  Zona P1_1_0,                            !- Zone Name
  P1_1_0,                                 !- Space Name
  Surface,                                !- Outside Boundary Condition
  Surface 4,                              !- Outside Boundary Condition Object
  NoSun,                                  !- Sun Exposure
  NoWind,                                 !- Wind Exposure
  ,                                       !- View Factor to Ground
  ,                                       !- Number of Vertices
  25, 0, 3.5,                             !- X,Y,Z Vertex 1 {m}
  25, 20, 3.5,                            !- X,Y,Z Vertex 2 {m}
  25, 20, 0,                              !- X,Y,Z Vertex 3 {m}
  25, 0, 0;                               !- X,Y,Z Vertex 4 {m}

BuildingSurface:Detailed,
  Surface 15,                             !- Name
  Wall,                                   !- Surface Type
  Alvenaria rebocada,                     !- Construction Name
  Zona P1_1_0,                            !- Zone Name
  P1_1_0,                                 !- Space Name
  Surface,                                !- Outside Boundary Condition
  Surface 23,                             !- Outside Boundary Condition Object
  NoSun,                                  !- Sun Exposure
  NoWind,                                 !- Wind Exposure
  ,                                       !- View Factor to Ground
  ,                                       !- Number of Vertices
  25, 20, 3.5,                            !- X,Y,Z Vertex 1 {m}
  50, 20, 3.5,                            !- X,Y,Z Vertex 2 {m}
  50, 20, 0,                              !- X,Y,Z Vertex 3 {m}
  25, 20, 0;                              !- X,Y,Z Vertex 4 {m}

BuildingSurface:Detailed,
  Surface 16,                             !- Name
  Wall,                                   !- Surface Type
  Alvenaria rebocada,                     !- Construction Name
  Zona P1_1_0,                            !- Zone Name
  P1_1_0,                                 !- Space Name
  Outdoors,                               !- Outside Boundary Condition
  ,                                       !- Outside Boundary Condition Object
  SunExposed,                             !- Sun Exposure
  WindExposed,                            !- Wind Exposure
  ,                                       !- View Factor to Ground
  ,                                       !- Number of Vertices
  50, 20, 3.5,                            !- X,Y,Z Vertex 1 {m}
  50, 0, 3.5,                             !- X,Y,Z Vertex 2 {m}
  50, 0, 0,                               !- X,Y,Z Vertex 3 {m}
  50, 20, 0;                              !- X,Y,Z Vertex 4 {m}

FenestrationSurface:Detailed,
  Sub Surface 10,                         !- Name
  Window,                                 !- Surface Type
  Vidro U3 SHGC0.4,                       !- Construction Name
  Surface 16,                             !- Building Surface Name
  ,                                       !- Outside Boundary Condition Object
  ,                                       !- View Factor to Ground
  ,                                       !- Frame and Divider Name
  ,                                       !- Multiplier
  ,                                       !- Number of Vertices
  50, 0.0254, 1.81467379143023,           !- X,Y,Z Vertex 1 {m}
  50, 0.0254, 0.762,                      !- X,Y,Z Vertex 2 {m}
  50, 19.9746, 0.762,                     !- X,Y,Z Vertex 3 {m}
  50, 19.9746, 1.81467379143023;          !- X,Y,Z Vertex 4 {m}

BuildingSurface:Detailed,
  Surface 17,                             !- Name
  Wall,                                   !- Surface Type
  Alvenaria rebocada,                     !- Construction Name
  Zona P1_1_0,                            !- Zone Name
  P1_1_0,                                 !- Space Name
  Outdoors,                               !- Outside Boundary Condition
  ,                                       !- Outside Boundary Condition Object
  SunExposed,                             !- Sun Exposure
  WindExposed,                            !- Wind Exposure
  ,                                       !- View Factor to Ground
  ,                                       !- Number of Vertices
  50, 0, 3.5,                             !- X,Y,Z Vertex 1 {m}
  25, 0, 3.5,                             !- X,Y,Z Vertex 2 {m}
  25, 0, 0,                               !- X,Y,Z Vertex 3 {m}
  50, 0, 0;                               !- X,Y,Z Vertex 4 {m}

FenestrationSurface:Detailed,
  Sub Surface 8,                          !- Name
  Window,                                 !- Surface Type
  Vidro U3 SHGC0.4,                       !- Construction Name
  Surface 17,                             !- Building Surface Name
  ,                                       !- Outside Boundary Condition Object
  ,                                       !- View Factor to Ground
  ,                                       !- Frame and Divider Name
  ,                                       !- Multiplier
  ,                                       !- Number of Vertices
  25.0254, 0, 1.81413794430282,           !- X,Y,Z Vertex 1 {m}
  25.0254, 0, 0.762,                      !- X,Y,Z Vertex 2 {m}
  49.9746, 0, 0.762,                      !- X,Y,Z Vertex 3 {m}
  49.9746, 0, 1.81413794430282;           !- X,Y,Z Vertex 4 {m}

BuildingSurface:Detailed,
  Surface 18,                             !- Name
  Ceiling,                                !- Surface Type
  Laje concreto,                          !- Construction Name
  Zona P1_1_0,                            !- Zone Name
  P1_1_0,                                 !- Space Name
  Surface,                                !- Outside Boundary Condition
  Surface 37,                             !- Outside Boundary Condition Object
  NoSun,                                  !- Sun Exposure
  NoWind,                                 !- Wind Exposure
  ,                                       !- View Factor to Ground
  ,                                       !- Number of Vertices
  50, 0, 3.5,                             !- X,Y,Z Vertex 1 {m}
  50, 20, 3.5,                            !- X,Y,Z Vertex 2 {m}
  25, 20, 3.5,                            !- X,Y,Z Vertex 3 {m}
  25, 0, 3.5;                             !- X,Y,Z Vertex 4 {m}

Lights,
  Lights 3,                               !- Name
  P1_1_0,                                 !- Zone or ZoneList or Space or SpaceList Name
  Iluminacao,                             !- Schedule Name
  Watts/Area,                             !- Design Level Calculation Method
  ,                                       !- Lighting Level {W}
  8,                                      !- Watts per Floor Area {W/m2}
  ,                                       !- Watts per Person {W/person}
  ,                                       !- Return Air Fraction
  ,                                       !- Fraction Radiant
  ,                                       !- Fraction Visible
  1,                                      !- Fraction Replaceable
  General;                                !- End-Use Subcategory

People,
  People 3,                               !- Name
  P1_1_0,                                 !- Zone or ZoneList or Space or SpaceList Name
  Ocupacao,                               !- Number of People Schedule Name
  People/Area,                            !- Number of People Calculation Method
  ,                                       !- Number of People
  0.08,                                   !- People per Floor Area {person/m2}
  ,                                       !- Floor Area per Person {m2/person}
  0.3,                                    !- Fraction Radiant
  ,                                       !- Sensible Heat Fraction
  Atividade sedentaria 120 W pessoa,      !- Activity Level Schedule Name
  ,                                       !- Carbon Dioxide Generation Rate {m3/s-W}
  ,                                       !- Enable ASHRAE 55 Comfort Warnings
  ,                                       !- Mean Radiant Temperature Calculation Type
  ,                                       !- Surface Name/Angle Factor List Name
  ,                                       !- Work Efficiency Schedule Name
  ClothingInsulationSchedule;             !- Clothing Insulation Calculation Method

ElectricEquipment,
  Electric Equipment 3,                   !- Name
  P1_1_0,                                 !- Zone or ZoneList or Space or SpaceList Name
  Computadores e demais equipamentos,     !- Schedule Name
  Watts/Area,                             !- Design Level Calculation Method
  ,                                       !- Design Level {W}
  12,                                     !- Watts per Floor Area {W/m2}
  ,                                       !- Watts per Person {W/person}
  ,                                       !- Fraction Latent
  ,                                       !- Fraction Radiant
  ,                                       !- Fraction Lost
  Computadores e cargas de escritorio;    !- End-Use Subcategory

ZoneInfiltration:DesignFlowRate,
  Space Infiltration Design Flow Rate 3,  !- Name
  P1_1_0,                                 !- Zone or ZoneList or Space or SpaceList Name
  Always On Discrete,                     !- Schedule Name
  AirChanges/Hour,                        !- Design Flow Rate Calculation Method
  ,                                       !- Design Flow Rate {m3/s}
  ,                                       !- Flow Rate per Floor Area {m3/s-m2}
  ,                                       !- Flow Rate per Exterior Surface Area {m3/s-m2}
  0.15,                                   !- Air Changes per Hour {1/hr}
  ,                                       !- Constant Term Coefficient
  ,                                       !- Temperature Term Coefficient
  ,                                       !- Velocity Term Coefficient
  ,                                       !- Velocity Squared Term Coefficient
  Outdoor;                                !- Density Basis

ZoneControl:Thermostat,
  Zona P1_1_0 Thermostat,                 !- Name
  Zona P1_1_0,                            !- Zone or ZoneList Name
  Zona P1_1_0 Thermostat Schedule,        !- Control Type Schedule Name
  ThermostatSetpoint:DualSetpoint,        !- Control 1 Object Type
  Thermostat Setpoint Dual Setpoint 3,    !- Control 1 Name
  ,                                       !- Control 2 Object Type
  ,                                       !- Control 2 Name
  ,                                       !- Control 3 Object Type
  ,                                       !- Control 3 Name
  ,                                       !- Control 4 Object Type
  ,                                       !- Control 4 Name
  0;                                      !- Temperature Difference Between Cutout And Setpoint {deltaC}

Schedule:Compact,
  Zona P1_1_0 Thermostat Schedule,        !- Name
  Zona P1_1_0 Thermostat Schedule Type Limits, !- Schedule Type Limits Name
  Through: 12/31,                         !- Field 1
  For: AllDays,                           !- Field 2
  Until: 24:00,                           !- Field 3
  4;                                      !- Field 4

ScheduleTypeLimits,
  Zona P1_1_0 Thermostat Schedule Type Limits, !- Name
  0,                                      !- Lower Limit Value {BasedOnField A3}
  4,                                      !- Upper Limit Value {BasedOnField A3}
  DISCRETE;                               !- Numeric Type

ThermostatSetpoint:DualSetpoint,
  Thermostat Setpoint Dual Setpoint 3,    !- Name
  Aquecimento 20C,                        !- Heating Setpoint Temperature Schedule Name
  Resfriamento 24C;                       !- Cooling Setpoint Temperature Schedule Name

ZoneHVAC:EquipmentConnections,
  Zona P1_1_0,                            !- Zone Name
  Zona P1_1_0 Equipment List,             !- Zone Conditioning Equipment List Name
  Zona P1_1_0 Inlet Node List,            !- Zone Air Inlet Node or NodeList Name
  Zona P1_1_0 Exhaust Node List,          !- Zone Air Exhaust Node or NodeList Name
  Node 7;                                 !- Zone Air Node Name

NodeList,
  Zona P1_1_0 Inlet Node List,            !- Name
  Node 9;                                 !- Node Name 1

NodeList,
  Zona P1_1_0 Exhaust Node List,          !- Name
  Node 8;                                 !- Node Name 1

ZoneHVAC:PackagedTerminalAirConditioner,
  Ar condicionado P1_1_0,                 !- Name
  HVAC 07-22,                             !- Availability Schedule Name
  Node 8,                                 !- Air Inlet Node Name
  Node 9,                                 !- Air Outlet Node Name
  OutdoorAir:Mixer,                       !- Outdoor Air Mixer Object Type
  Ar condicionado P1_1_0 OA Mixer,        !- Outdoor Air Mixer Name
  Autosize,                               !- Cooling Supply Air Flow Rate {m3/s}
  Autosize,                               !- Heating Supply Air Flow Rate {m3/s}
  Autosize,                               !- No Load Supply Air Flow Rate {m3/s}
  Yes,                                    !- No Load Supply Air Flow Rate Control Set To Low Speed
  0.45,                                   !- Cooling Outdoor Air Flow Rate {m3/s}
  0.45,                                   !- Heating Outdoor Air Flow Rate {m3/s}
  0.45,                                   !- No Load Outdoor Air Flow Rate {m3/s}
  Fan:ConstantVolume,                     !- Supply Air Fan Object Type
  Fan Constant Volume 3,                  !- Supply Air Fan Name
  Coil:Heating:Electric,                  !- Heating Coil Object Type
  Coil Heating Electric 3,                !- Heating Coil Name
  Coil:Cooling:DX:SingleSpeed,            !- Cooling Coil Object Type
  Coil Cooling DX Single Speed 3,         !- Cooling Coil Name
  DrawThrough,                            !- Fan Placement
  Always On Discrete;                     !- Supply Air Fan Operating Mode Schedule Name

OutdoorAir:Mixer,
  Ar condicionado P1_1_0 OA Mixer,        !- Name
  Ar condicionado P1_1_0 Mixed Air Node,  !- Mixed Air Node Name
  Ar condicionado P1_1_0 OA Node,         !- Outdoor Air Stream Node Name
  Ar condicionado P1_1_0 Relief Air Node, !- Relief Air Stream Node Name
  Node 8;                                 !- Return Air Stream Node Name

OutdoorAir:NodeList,
  Ar condicionado P1_1_0 OA Node;         !- Node or NodeList Name 1

Fan:ConstantVolume,
  Fan Constant Volume 3,                  !- Name
  Always On Discrete,                     !- Availability Schedule Name
  0.6,                                    !- Fan Total Efficiency
  350,                                    !- Pressure Rise {Pa}
  AutoSize,                               !- Maximum Flow Rate {m3/s}
  0.9,                                    !- Motor Efficiency
  1,                                      !- Motor In Airstream Fraction
  Ar condicionado P1_1_0 Heating Coil Outlet Node, !- Air Inlet Node Name
  Node 9,                                 !- Air Outlet Node Name
  ;                                       !- End-Use Subcategory

Coil:Heating:Electric,
  Coil Heating Electric 3,                !- Name
  Always On Discrete,                     !- Availability Schedule Name
  1,                                      !- Efficiency
  Autosize,                               !- Nominal Capacity {W}
  Ar condicionado P1_1_0 Cooling Coil Outlet Node, !- Air Inlet Node Name
  Ar condicionado P1_1_0 Heating Coil Outlet Node; !- Air Outlet Node Name

Curve:Biquadratic,
  Curve Biquadratic 5,                    !- Name
  0.942587793,                            !- Coefficient1 Constant
  0.009543347,                            !- Coefficient2 x
  0.00068377,                             !- Coefficient3 x**2
  -0.011042676,                           !- Coefficient4 y
  5.249e-06,                              !- Coefficient5 y**2
  -9.72e-06,                              !- Coefficient6 x*y
  17,                                     !- Minimum Value of x {BasedOnField A2}
  22,                                     !- Maximum Value of x {BasedOnField A2}
  13,                                     !- Minimum Value of y {BasedOnField A3}
  46;                                     !- Maximum Value of y {BasedOnField A3}

Curve:Quadratic,
  Curve Quadratic 7,                      !- Name
  0.8,                                    !- Coefficient1 Constant
  0.2,                                    !- Coefficient2 x
  0,                                      !- Coefficient3 x**2
  0.5,                                    !- Minimum Value of x {BasedOnField A2}
  1.5;                                    !- Maximum Value of x {BasedOnField A2}

Curve:Biquadratic,
  Curve Biquadratic 6,                    !- Name
  0.342414409,                            !- Coefficient1 Constant
  0.034885008,                            !- Coefficient2 x
  -0.0006237,                             !- Coefficient3 x**2
  0.004977216,                            !- Coefficient4 y
  0.000437951,                            !- Coefficient5 y**2
  -0.000728028,                           !- Coefficient6 x*y
  17,                                     !- Minimum Value of x {BasedOnField A2}
  22,                                     !- Maximum Value of x {BasedOnField A2}
  13,                                     !- Minimum Value of y {BasedOnField A3}
  46;                                     !- Maximum Value of y {BasedOnField A3}

Curve:Quadratic,
  Curve Quadratic 8,                      !- Name
  1.1552,                                 !- Coefficient1 Constant
  -0.1808,                                !- Coefficient2 x
  0.0256,                                 !- Coefficient3 x**2
  0.5,                                    !- Minimum Value of x {BasedOnField A2}
  1.5;                                    !- Maximum Value of x {BasedOnField A2}

Curve:Quadratic,
  Curve Quadratic 9,                      !- Name
  0.85,                                   !- Coefficient1 Constant
  0.15,                                   !- Coefficient2 x
  0,                                      !- Coefficient3 x**2
  0,                                      !- Minimum Value of x {BasedOnField A2}
  1;                                      !- Maximum Value of x {BasedOnField A2}

Coil:Cooling:DX:SingleSpeed,
  Coil Cooling DX Single Speed 3,         !- Name
  Always On Discrete,                     !- Availability Schedule Name
  Autosize,                               !- Gross Rated Total Cooling Capacity {W}
  Autosize,                               !- Gross Rated Sensible Heat Ratio
  3.2,                                    !- Gross Rated Cooling COP {W/W}
  Autosize,                               !- Rated Air Flow Rate {m3/s}
  773.3,                                  !- Rated Evaporator Fan Power Per Volume Flow Rate 2017 {W/(m3/s)}
  934.4,                                  !- Rated Evaporator Fan Power Per Volume Flow Rate 2023 {W/(m3/s)}
  Ar condicionado P1_1_0 Mixed Air Node,  !- Air Inlet Node Name
  Ar condicionado P1_1_0 Cooling Coil Outlet Node, !- Air Outlet Node Name
  Curve Biquadratic 5,                    !- Total Cooling Capacity Function of Temperature Curve Name
  Curve Quadratic 7,                      !- Total Cooling Capacity Function of Flow Fraction Curve Name
  Curve Biquadratic 6,                    !- Energy Input Ratio Function of Temperature Curve Name
  Curve Quadratic 8,                      !- Energy Input Ratio Function of Flow Fraction Curve Name
  Curve Quadratic 9,                      !- Part Load Fraction Correlation Curve Name
  -25,                                    !- Minimum Outdoor Dry-Bulb Temperature for Compressor Operation {C}
  0,                                      !- Nominal Time for Condensate Removal to Begin {s}
  0,                                      !- Ratio of Initial Moisture Evaporation Rate and Steady State Latent Capacity {dimensionless}
  0,                                      !- Maximum Cycling Rate {cycles/hr}
  0,                                      !- Latent Capacity Time Constant {s}
  ,                                       !- Condenser Air Inlet Node Name
  AirCooled,                              !- Condenser Type
  0.9,                                    !- Evaporative Condenser Effectiveness {dimensionless}
  Autosize,                               !- Evaporative Condenser Air Flow Rate {m3/s}
  Autosize,                               !- Evaporative Condenser Pump Rated Power Consumption {W}
  0,                                      !- Crankcase Heater Capacity {W}
  ,                                       !- Crankcase Heater Capacity Function of Temperature Curve Name
  10,                                     !- Maximum Outdoor Dry-Bulb Temperature for Crankcase Heater Operation {C}
  ,                                       !- Supply Water Storage Tank Name
  ,                                       !- Condensate Collection Water Storage Tank Name
  0,                                      !- Basin Heater Capacity {W/K}
  2;                                      !- Basin Heater Setpoint Temperature {C}

ZoneHVAC:EquipmentList,
  Zona P1_1_0 Equipment List,             !- Name
  SequentialLoad,                         !- Load Distribution Scheme
  ZoneHVAC:PackagedTerminalAirConditioner, !- Zone Equipment Object Type 1
  Ar condicionado P1_1_0,                 !- Zone Equipment Name 1
  1,                                      !- Zone Equipment Cooling Sequence 1
  1,                                      !- Zone Equipment Heating or No-Load Sequence 1
  ,                                       !- Zone Equipment Sequential Cooling Fraction Schedule Name 1
  ;                                       !- Zone Equipment Sequential Heating Fraction Schedule Name 1

Sizing:Zone,
  Zona P1_1_0,                            !- Zone or ZoneList Name
  SupplyAirTemperature,                   !- Zone Cooling Design Supply Air Temperature Input Method
  14,                                     !- Zone Cooling Design Supply Air Temperature {C}
  11.11,                                  !- Zone Cooling Design Supply Air Temperature Difference {deltaC}
  SupplyAirTemperature,                   !- Zone Heating Design Supply Air Temperature Input Method
  40,                                     !- Zone Heating Design Supply Air Temperature {C}
  11.11,                                  !- Zone Heating Design Supply Air Temperature Difference {deltaC}
  0.0085,                                 !- Zone Cooling Design Supply Air Humidity Ratio {kgWater/kgDryAir}
  0.008,                                  !- Zone Heating Design Supply Air Humidity Ratio {kgWater/kgDryAir}
  Design Specification Outdoor Air 3,     !- Design Specification Outdoor Air Object Name
  ,                                       !- Zone Heating Sizing Factor
  ,                                       !- Zone Cooling Sizing Factor
  DesignDay,                              !- Cooling Design Air Flow Method
  0,                                      !- Cooling Design Air Flow Rate {m3/s}
  0.000762,                               !- Cooling Minimum Air Flow per Zone Floor Area {m3/s-m2}
  0,                                      !- Cooling Minimum Air Flow {m3/s}
  0,                                      !- Cooling Minimum Air Flow Fraction
  DesignDay,                              !- Heating Design Air Flow Method
  0,                                      !- Heating Design Air Flow Rate {m3/s}
  0.002032,                               !- Heating Maximum Air Flow per Zone Floor Area {m3/s-m2}
  0.1415762,                              !- Heating Maximum Air Flow {m3/s}
  0.3,                                    !- Heating Maximum Air Flow Fraction
  ,                                       !- Design Specification Zone Air Distribution Object Name
  No,                                     !- Account for Dedicated Outdoor Air System
  ,                                       !- Dedicated Outdoor Air System Control Strategy
  ,                                       !- Dedicated Outdoor Air Low Setpoint Temperature for Design {C}
  ,                                       !- Dedicated Outdoor Air High Setpoint Temperature for Design {C}
  Sensible Load Only No Latent Load,      !- Zone Load Sizing Method
  HumidityRatioDifference,                !- Zone Latent Cooling Design Supply Air Humidity Ratio Input Method
  ,                                       !- Zone Dehumidification Design Supply Air Humidity Ratio {kgWater/kgDryAir}
  0.005,                                  !- Zone Cooling Design Supply Air Humidity Ratio Difference {kgWater/kgDryAir}
  HumidityRatioDifference,                !- Zone Latent Heating Design Supply Air Humidity Ratio Input Method
  ,                                       !- Zone Humidification Design Supply Air Humidity Ratio {kgWater/kgDryAir}
  0.005,                                  !- Zone Humidification Design Supply Air Humidity Ratio Difference {kgWater/kgDryAir}
  ,                                       !- Zone Humidistat Dehumidification Set Point Schedule Name
  ,                                       !- Zone Humidistat Humidification Set Point Schedule Name
  Coincident,                             !- Type of Space Sum to Use
  None,                                   !- Heating Coil Sizing Method
  1;                                      !- Maximum Heating Capacity To Cooling Load Sizing Ratio {W/W}

DesignSpecification:OutdoorAir,
  Design Specification Outdoor Air 3,     !- Name
  Sum,                                    !- Outdoor Air Method
  0.0075,                                 !- Outdoor Air Flow per Person {m3/s-person}
  0.0003,                                 !- Outdoor Air Flow per Zone Floor Area {m3/s-m2}
  0,                                      !- Outdoor Air Flow per Zone {m3/s}
  0;                                      !- Outdoor Air Flow Air Changes per Hour {1/hr}

Zone,
  Zona P1_1_1,                            !- Name
  ,                                       !- Direction of Relative North {deg}
  0,                                      !- X Origin {m}
  0,                                      !- Y Origin {m}
  0,                                      !- Z Origin {m}
  ,                                       !- Type
  1,                                      !- Multiplier
  ,                                       !- Ceiling Height {m}
  ,                                       !- Volume {m3}
  ,                                       !- Floor Area {m2}
  ,                                       !- Zone Inside Convection Algorithm
  ,                                       !- Zone Outside Convection Algorithm
  Yes;                                    !- Part of Total Floor Area

Space,
  P1_1_1,                                 !- Name
  Zona P1_1_1,                            !- Zone Name
  ,                                       !- Ceiling Height {m}
  ,                                       !- Volume {m3}
  ;                                       !- Floor Area {m2}

BuildingSurface:Detailed,
  Surface 19,                             !- Name
  Floor,                                  !- Surface Type
  Laje concreto,                          !- Construction Name
  Zona P1_1_1,                            !- Zone Name
  P1_1_1,                                 !- Space Name
  Ground,                                 !- Outside Boundary Condition
  ,                                       !- Outside Boundary Condition Object
  NoSun,                                  !- Sun Exposure
  NoWind,                                 !- Wind Exposure
  ,                                       !- View Factor to Ground
  ,                                       !- Number of Vertices
  25, 20, 0,                              !- X,Y,Z Vertex 1 {m}
  25, 40, 0,                              !- X,Y,Z Vertex 2 {m}
  50, 40, 0,                              !- X,Y,Z Vertex 3 {m}
  50, 20, 0;                              !- X,Y,Z Vertex 4 {m}

BuildingSurface:Detailed,
  Surface 20,                             !- Name
  Wall,                                   !- Surface Type
  Alvenaria rebocada,                     !- Construction Name
  Zona P1_1_1,                            !- Zone Name
  P1_1_1,                                 !- Space Name
  Surface,                                !- Outside Boundary Condition
  Surface 10,                             !- Outside Boundary Condition Object
  NoSun,                                  !- Sun Exposure
  NoWind,                                 !- Wind Exposure
  ,                                       !- View Factor to Ground
  ,                                       !- Number of Vertices
  25, 20, 3.5,                            !- X,Y,Z Vertex 1 {m}
  25, 40, 3.5,                            !- X,Y,Z Vertex 2 {m}
  25, 40, 0,                              !- X,Y,Z Vertex 3 {m}
  25, 20, 0;                              !- X,Y,Z Vertex 4 {m}

BuildingSurface:Detailed,
  Surface 21,                             !- Name
  Wall,                                   !- Surface Type
  Alvenaria rebocada,                     !- Construction Name
  Zona P1_1_1,                            !- Zone Name
  P1_1_1,                                 !- Space Name
  Outdoors,                               !- Outside Boundary Condition
  ,                                       !- Outside Boundary Condition Object
  SunExposed,                             !- Sun Exposure
  WindExposed,                            !- Wind Exposure
  ,                                       !- View Factor to Ground
  ,                                       !- Number of Vertices
  25, 40, 3.5,                            !- X,Y,Z Vertex 1 {m}
  50, 40, 3.5,                            !- X,Y,Z Vertex 2 {m}
  50, 40, 0,                              !- X,Y,Z Vertex 3 {m}
  25, 40, 0;                              !- X,Y,Z Vertex 4 {m}

FenestrationSurface:Detailed,
  Sub Surface 3,                          !- Name
  Window,                                 !- Surface Type
  Vidro U3 SHGC0.4,                       !- Construction Name
  Surface 21,                             !- Building Surface Name
  ,                                       !- Outside Boundary Condition Object
  ,                                       !- View Factor to Ground
  ,                                       !- Frame and Divider Name
  ,                                       !- Multiplier
  ,                                       !- Number of Vertices
  49.9746, 40, 1.81413794430282,          !- X,Y,Z Vertex 1 {m}
  49.9746, 40, 0.762,                     !- X,Y,Z Vertex 2 {m}
  25.0254, 40, 0.762,                     !- X,Y,Z Vertex 3 {m}
  25.0254, 40, 1.81413794430282;          !- X,Y,Z Vertex 4 {m}

BuildingSurface:Detailed,
  Surface 22,                             !- Name
  Wall,                                   !- Surface Type
  Alvenaria rebocada,                     !- Construction Name
  Zona P1_1_1,                            !- Zone Name
  P1_1_1,                                 !- Space Name
  Outdoors,                               !- Outside Boundary Condition
  ,                                       !- Outside Boundary Condition Object
  SunExposed,                             !- Sun Exposure
  WindExposed,                            !- Wind Exposure
  ,                                       !- View Factor to Ground
  ,                                       !- Number of Vertices
  50, 40, 3.5,                            !- X,Y,Z Vertex 1 {m}
  50, 20, 3.5,                            !- X,Y,Z Vertex 2 {m}
  50, 20, 0,                              !- X,Y,Z Vertex 3 {m}
  50, 40, 0;                              !- X,Y,Z Vertex 4 {m}

FenestrationSurface:Detailed,
  Sub Surface 11,                         !- Name
  Window,                                 !- Surface Type
  Vidro U3 SHGC0.4,                       !- Construction Name
  Surface 22,                             !- Building Surface Name
  ,                                       !- Outside Boundary Condition Object
  ,                                       !- View Factor to Ground
  ,                                       !- Frame and Divider Name
  ,                                       !- Multiplier
  ,                                       !- Number of Vertices
  50, 20.0254, 1.81467379143023,          !- X,Y,Z Vertex 1 {m}
  50, 20.0254, 0.762,                     !- X,Y,Z Vertex 2 {m}
  50, 39.9746, 0.762,                     !- X,Y,Z Vertex 3 {m}
  50, 39.9746, 1.81467379143023;          !- X,Y,Z Vertex 4 {m}

BuildingSurface:Detailed,
  Surface 23,                             !- Name
  Wall,                                   !- Surface Type
  Alvenaria rebocada,                     !- Construction Name
  Zona P1_1_1,                            !- Zone Name
  P1_1_1,                                 !- Space Name
  Surface,                                !- Outside Boundary Condition
  Surface 15,                             !- Outside Boundary Condition Object
  NoSun,                                  !- Sun Exposure
  NoWind,                                 !- Wind Exposure
  ,                                       !- View Factor to Ground
  ,                                       !- Number of Vertices
  50, 20, 3.5,                            !- X,Y,Z Vertex 1 {m}
  25, 20, 3.5,                            !- X,Y,Z Vertex 2 {m}
  25, 20, 0,                              !- X,Y,Z Vertex 3 {m}
  50, 20, 0;                              !- X,Y,Z Vertex 4 {m}

BuildingSurface:Detailed,
  Surface 24,                             !- Name
  Ceiling,                                !- Surface Type
  Laje concreto,                          !- Construction Name
  Zona P1_1_1,                            !- Zone Name
  P1_1_1,                                 !- Space Name
  Surface,                                !- Outside Boundary Condition
  Surface 43,                             !- Outside Boundary Condition Object
  NoSun,                                  !- Sun Exposure
  NoWind,                                 !- Wind Exposure
  ,                                       !- View Factor to Ground
  ,                                       !- Number of Vertices
  50, 20, 3.5,                            !- X,Y,Z Vertex 1 {m}
  50, 40, 3.5,                            !- X,Y,Z Vertex 2 {m}
  25, 40, 3.5,                            !- X,Y,Z Vertex 3 {m}
  25, 20, 3.5;                            !- X,Y,Z Vertex 4 {m}

Lights,
  Lights 4,                               !- Name
  P1_1_1,                                 !- Zone or ZoneList or Space or SpaceList Name
  Iluminacao,                             !- Schedule Name
  Watts/Area,                             !- Design Level Calculation Method
  ,                                       !- Lighting Level {W}
  8,                                      !- Watts per Floor Area {W/m2}
  ,                                       !- Watts per Person {W/person}
  ,                                       !- Return Air Fraction
  ,                                       !- Fraction Radiant
  ,                                       !- Fraction Visible
  1,                                      !- Fraction Replaceable
  General;                                !- End-Use Subcategory

People,
  People 4,                               !- Name
  P1_1_1,                                 !- Zone or ZoneList or Space or SpaceList Name
  Ocupacao,                               !- Number of People Schedule Name
  People/Area,                            !- Number of People Calculation Method
  ,                                       !- Number of People
  0.08,                                   !- People per Floor Area {person/m2}
  ,                                       !- Floor Area per Person {m2/person}
  0.3,                                    !- Fraction Radiant
  ,                                       !- Sensible Heat Fraction
  Atividade sedentaria 120 W pessoa,      !- Activity Level Schedule Name
  ,                                       !- Carbon Dioxide Generation Rate {m3/s-W}
  ,                                       !- Enable ASHRAE 55 Comfort Warnings
  ,                                       !- Mean Radiant Temperature Calculation Type
  ,                                       !- Surface Name/Angle Factor List Name
  ,                                       !- Work Efficiency Schedule Name
  ClothingInsulationSchedule;             !- Clothing Insulation Calculation Method

ElectricEquipment,
  Electric Equipment 4,                   !- Name
  P1_1_1,                                 !- Zone or ZoneList or Space or SpaceList Name
  Computadores e demais equipamentos,     !- Schedule Name
  Watts/Area,                             !- Design Level Calculation Method
  ,                                       !- Design Level {W}
  12,                                     !- Watts per Floor Area {W/m2}
  ,                                       !- Watts per Person {W/person}
  ,                                       !- Fraction Latent
  ,                                       !- Fraction Radiant
  ,                                       !- Fraction Lost
  Computadores e cargas de escritorio;    !- End-Use Subcategory

ZoneInfiltration:DesignFlowRate,
  Space Infiltration Design Flow Rate 4,  !- Name
  P1_1_1,                                 !- Zone or ZoneList or Space or SpaceList Name
  Always On Discrete,                     !- Schedule Name
  AirChanges/Hour,                        !- Design Flow Rate Calculation Method
  ,                                       !- Design Flow Rate {m3/s}
  ,                                       !- Flow Rate per Floor Area {m3/s-m2}
  ,                                       !- Flow Rate per Exterior Surface Area {m3/s-m2}
  0.15,                                   !- Air Changes per Hour {1/hr}
  ,                                       !- Constant Term Coefficient
  ,                                       !- Temperature Term Coefficient
  ,                                       !- Velocity Term Coefficient
  ,                                       !- Velocity Squared Term Coefficient
  Outdoor;                                !- Density Basis

ZoneControl:Thermostat,
  Zona P1_1_1 Thermostat,                 !- Name
  Zona P1_1_1,                            !- Zone or ZoneList Name
  Zona P1_1_1 Thermostat Schedule,        !- Control Type Schedule Name
  ThermostatSetpoint:DualSetpoint,        !- Control 1 Object Type
  Thermostat Setpoint Dual Setpoint 4,    !- Control 1 Name
  ,                                       !- Control 2 Object Type
  ,                                       !- Control 2 Name
  ,                                       !- Control 3 Object Type
  ,                                       !- Control 3 Name
  ,                                       !- Control 4 Object Type
  ,                                       !- Control 4 Name
  0;                                      !- Temperature Difference Between Cutout And Setpoint {deltaC}

Schedule:Compact,
  Zona P1_1_1 Thermostat Schedule,        !- Name
  Zona P1_1_1 Thermostat Schedule Type Limits, !- Schedule Type Limits Name
  Through: 12/31,                         !- Field 1
  For: AllDays,                           !- Field 2
  Until: 24:00,                           !- Field 3
  4;                                      !- Field 4

ScheduleTypeLimits,
  Zona P1_1_1 Thermostat Schedule Type Limits, !- Name
  0,                                      !- Lower Limit Value {BasedOnField A3}
  4,                                      !- Upper Limit Value {BasedOnField A3}
  DISCRETE;                               !- Numeric Type

ThermostatSetpoint:DualSetpoint,
  Thermostat Setpoint Dual Setpoint 4,    !- Name
  Aquecimento 20C,                        !- Heating Setpoint Temperature Schedule Name
  Resfriamento 24C;                       !- Cooling Setpoint Temperature Schedule Name

ZoneHVAC:EquipmentConnections,
  Zona P1_1_1,                            !- Zone Name
  Zona P1_1_1 Equipment List,             !- Zone Conditioning Equipment List Name
  Zona P1_1_1 Inlet Node List,            !- Zone Air Inlet Node or NodeList Name
  Zona P1_1_1 Exhaust Node List,          !- Zone Air Exhaust Node or NodeList Name
  Node 10;                                !- Zone Air Node Name

NodeList,
  Zona P1_1_1 Inlet Node List,            !- Name
  Node 12;                                !- Node Name 1

NodeList,
  Zona P1_1_1 Exhaust Node List,          !- Name
  Node 11;                                !- Node Name 1

ZoneHVAC:PackagedTerminalAirConditioner,
  Ar condicionado P1_1_1,                 !- Name
  HVAC 07-22,                             !- Availability Schedule Name
  Node 11,                                !- Air Inlet Node Name
  Node 12,                                !- Air Outlet Node Name
  OutdoorAir:Mixer,                       !- Outdoor Air Mixer Object Type
  Ar condicionado P1_1_1 OA Mixer,        !- Outdoor Air Mixer Name
  Autosize,                               !- Cooling Supply Air Flow Rate {m3/s}
  Autosize,                               !- Heating Supply Air Flow Rate {m3/s}
  Autosize,                               !- No Load Supply Air Flow Rate {m3/s}
  Yes,                                    !- No Load Supply Air Flow Rate Control Set To Low Speed
  0.45,                                   !- Cooling Outdoor Air Flow Rate {m3/s}
  0.45,                                   !- Heating Outdoor Air Flow Rate {m3/s}
  0.45,                                   !- No Load Outdoor Air Flow Rate {m3/s}
  Fan:ConstantVolume,                     !- Supply Air Fan Object Type
  Fan Constant Volume 4,                  !- Supply Air Fan Name
  Coil:Heating:Electric,                  !- Heating Coil Object Type
  Coil Heating Electric 4,                !- Heating Coil Name
  Coil:Cooling:DX:SingleSpeed,            !- Cooling Coil Object Type
  Coil Cooling DX Single Speed 4,         !- Cooling Coil Name
  DrawThrough,                            !- Fan Placement
  Always On Discrete;                     !- Supply Air Fan Operating Mode Schedule Name

OutdoorAir:Mixer,
  Ar condicionado P1_1_1 OA Mixer,        !- Name
  Ar condicionado P1_1_1 Mixed Air Node,  !- Mixed Air Node Name
  Ar condicionado P1_1_1 OA Node,         !- Outdoor Air Stream Node Name
  Ar condicionado P1_1_1 Relief Air Node, !- Relief Air Stream Node Name
  Node 11;                                !- Return Air Stream Node Name

OutdoorAir:NodeList,
  Ar condicionado P1_1_1 OA Node;         !- Node or NodeList Name 1

Fan:ConstantVolume,
  Fan Constant Volume 4,                  !- Name
  Always On Discrete,                     !- Availability Schedule Name
  0.6,                                    !- Fan Total Efficiency
  350,                                    !- Pressure Rise {Pa}
  AutoSize,                               !- Maximum Flow Rate {m3/s}
  0.9,                                    !- Motor Efficiency
  1,                                      !- Motor In Airstream Fraction
  Ar condicionado P1_1_1 Heating Coil Outlet Node, !- Air Inlet Node Name
  Node 12,                                !- Air Outlet Node Name
  ;                                       !- End-Use Subcategory

Coil:Heating:Electric,
  Coil Heating Electric 4,                !- Name
  Always On Discrete,                     !- Availability Schedule Name
  1,                                      !- Efficiency
  Autosize,                               !- Nominal Capacity {W}
  Ar condicionado P1_1_1 Cooling Coil Outlet Node, !- Air Inlet Node Name
  Ar condicionado P1_1_1 Heating Coil Outlet Node; !- Air Outlet Node Name

Curve:Biquadratic,
  Curve Biquadratic 7,                    !- Name
  0.942587793,                            !- Coefficient1 Constant
  0.009543347,                            !- Coefficient2 x
  0.00068377,                             !- Coefficient3 x**2
  -0.011042676,                           !- Coefficient4 y
  5.249e-06,                              !- Coefficient5 y**2
  -9.72e-06,                              !- Coefficient6 x*y
  17,                                     !- Minimum Value of x {BasedOnField A2}
  22,                                     !- Maximum Value of x {BasedOnField A2}
  13,                                     !- Minimum Value of y {BasedOnField A3}
  46;                                     !- Maximum Value of y {BasedOnField A3}

Curve:Quadratic,
  Curve Quadratic 10,                     !- Name
  0.8,                                    !- Coefficient1 Constant
  0.2,                                    !- Coefficient2 x
  0,                                      !- Coefficient3 x**2
  0.5,                                    !- Minimum Value of x {BasedOnField A2}
  1.5;                                    !- Maximum Value of x {BasedOnField A2}

Curve:Biquadratic,
  Curve Biquadratic 8,                    !- Name
  0.342414409,                            !- Coefficient1 Constant
  0.034885008,                            !- Coefficient2 x
  -0.0006237,                             !- Coefficient3 x**2
  0.004977216,                            !- Coefficient4 y
  0.000437951,                            !- Coefficient5 y**2
  -0.000728028,                           !- Coefficient6 x*y
  17,                                     !- Minimum Value of x {BasedOnField A2}
  22,                                     !- Maximum Value of x {BasedOnField A2}
  13,                                     !- Minimum Value of y {BasedOnField A3}
  46;                                     !- Maximum Value of y {BasedOnField A3}

Curve:Quadratic,
  Curve Quadratic 11,                     !- Name
  1.1552,                                 !- Coefficient1 Constant
  -0.1808,                                !- Coefficient2 x
  0.0256,                                 !- Coefficient3 x**2
  0.5,                                    !- Minimum Value of x {BasedOnField A2}
  1.5;                                    !- Maximum Value of x {BasedOnField A2}

Curve:Quadratic,
  Curve Quadratic 12,                     !- Name
  0.85,                                   !- Coefficient1 Constant
  0.15,                                   !- Coefficient2 x
  0,                                      !- Coefficient3 x**2
  0,                                      !- Minimum Value of x {BasedOnField A2}
  1;                                      !- Maximum Value of x {BasedOnField A2}

Coil:Cooling:DX:SingleSpeed,
  Coil Cooling DX Single Speed 4,         !- Name
  Always On Discrete,                     !- Availability Schedule Name
  Autosize,                               !- Gross Rated Total Cooling Capacity {W}
  Autosize,                               !- Gross Rated Sensible Heat Ratio
  3.2,                                    !- Gross Rated Cooling COP {W/W}
  Autosize,                               !- Rated Air Flow Rate {m3/s}
  773.3,                                  !- Rated Evaporator Fan Power Per Volume Flow Rate 2017 {W/(m3/s)}
  934.4,                                  !- Rated Evaporator Fan Power Per Volume Flow Rate 2023 {W/(m3/s)}
  Ar condicionado P1_1_1 Mixed Air Node,  !- Air Inlet Node Name
  Ar condicionado P1_1_1 Cooling Coil Outlet Node, !- Air Outlet Node Name
  Curve Biquadratic 7,                    !- Total Cooling Capacity Function of Temperature Curve Name
  Curve Quadratic 10,                     !- Total Cooling Capacity Function of Flow Fraction Curve Name
  Curve Biquadratic 8,                    !- Energy Input Ratio Function of Temperature Curve Name
  Curve Quadratic 11,                     !- Energy Input Ratio Function of Flow Fraction Curve Name
  Curve Quadratic 12,                     !- Part Load Fraction Correlation Curve Name
  -25,                                    !- Minimum Outdoor Dry-Bulb Temperature for Compressor Operation {C}
  0,                                      !- Nominal Time for Condensate Removal to Begin {s}
  0,                                      !- Ratio of Initial Moisture Evaporation Rate and Steady State Latent Capacity {dimensionless}
  0,                                      !- Maximum Cycling Rate {cycles/hr}
  0,                                      !- Latent Capacity Time Constant {s}
  ,                                       !- Condenser Air Inlet Node Name
  AirCooled,                              !- Condenser Type
  0.9,                                    !- Evaporative Condenser Effectiveness {dimensionless}
  Autosize,                               !- Evaporative Condenser Air Flow Rate {m3/s}
  Autosize,                               !- Evaporative Condenser Pump Rated Power Consumption {W}
  0,                                      !- Crankcase Heater Capacity {W}
  ,                                       !- Crankcase Heater Capacity Function of Temperature Curve Name
  10,                                     !- Maximum Outdoor Dry-Bulb Temperature for Crankcase Heater Operation {C}
  ,                                       !- Supply Water Storage Tank Name
  ,                                       !- Condensate Collection Water Storage Tank Name
  0,                                      !- Basin Heater Capacity {W/K}
  2;                                      !- Basin Heater Setpoint Temperature {C}

ZoneHVAC:EquipmentList,
  Zona P1_1_1 Equipment List,             !- Name
  SequentialLoad,                         !- Load Distribution Scheme
  ZoneHVAC:PackagedTerminalAirConditioner, !- Zone Equipment Object Type 1
  Ar condicionado P1_1_1,                 !- Zone Equipment Name 1
  1,                                      !- Zone Equipment Cooling Sequence 1
  1,                                      !- Zone Equipment Heating or No-Load Sequence 1
  ,                                       !- Zone Equipment Sequential Cooling Fraction Schedule Name 1
  ;                                       !- Zone Equipment Sequential Heating Fraction Schedule Name 1

Sizing:Zone,
  Zona P1_1_1,                            !- Zone or ZoneList Name
  SupplyAirTemperature,                   !- Zone Cooling Design Supply Air Temperature Input Method
  14,                                     !- Zone Cooling Design Supply Air Temperature {C}
  11.11,                                  !- Zone Cooling Design Supply Air Temperature Difference {deltaC}
  SupplyAirTemperature,                   !- Zone Heating Design Supply Air Temperature Input Method
  40,                                     !- Zone Heating Design Supply Air Temperature {C}
  11.11,                                  !- Zone Heating Design Supply Air Temperature Difference {deltaC}
  0.0085,                                 !- Zone Cooling Design Supply Air Humidity Ratio {kgWater/kgDryAir}
  0.008,                                  !- Zone Heating Design Supply Air Humidity Ratio {kgWater/kgDryAir}
  Design Specification Outdoor Air 4,     !- Design Specification Outdoor Air Object Name
  ,                                       !- Zone Heating Sizing Factor
  ,                                       !- Zone Cooling Sizing Factor
  DesignDay,                              !- Cooling Design Air Flow Method
  0,                                      !- Cooling Design Air Flow Rate {m3/s}
  0.000762,                               !- Cooling Minimum Air Flow per Zone Floor Area {m3/s-m2}
  0,                                      !- Cooling Minimum Air Flow {m3/s}
  0,                                      !- Cooling Minimum Air Flow Fraction
  DesignDay,                              !- Heating Design Air Flow Method
  0,                                      !- Heating Design Air Flow Rate {m3/s}
  0.002032,                               !- Heating Maximum Air Flow per Zone Floor Area {m3/s-m2}
  0.1415762,                              !- Heating Maximum Air Flow {m3/s}
  0.3,                                    !- Heating Maximum Air Flow Fraction
  ,                                       !- Design Specification Zone Air Distribution Object Name
  No,                                     !- Account for Dedicated Outdoor Air System
  ,                                       !- Dedicated Outdoor Air System Control Strategy
  ,                                       !- Dedicated Outdoor Air Low Setpoint Temperature for Design {C}
  ,                                       !- Dedicated Outdoor Air High Setpoint Temperature for Design {C}
  Sensible Load Only No Latent Load,      !- Zone Load Sizing Method
  HumidityRatioDifference,                !- Zone Latent Cooling Design Supply Air Humidity Ratio Input Method
  ,                                       !- Zone Dehumidification Design Supply Air Humidity Ratio {kgWater/kgDryAir}
  0.005,                                  !- Zone Cooling Design Supply Air Humidity Ratio Difference {kgWater/kgDryAir}
  HumidityRatioDifference,                !- Zone Latent Heating Design Supply Air Humidity Ratio Input Method
  ,                                       !- Zone Humidification Design Supply Air Humidity Ratio {kgWater/kgDryAir}
  0.005,                                  !- Zone Humidification Design Supply Air Humidity Ratio Difference {kgWater/kgDryAir}
  ,                                       !- Zone Humidistat Dehumidification Set Point Schedule Name
  ,                                       !- Zone Humidistat Humidification Set Point Schedule Name
  Coincident,                             !- Type of Space Sum to Use
  None,                                   !- Heating Coil Sizing Method
  1;                                      !- Maximum Heating Capacity To Cooling Load Sizing Ratio {W/W}

DesignSpecification:OutdoorAir,
  Design Specification Outdoor Air 4,     !- Name
  Sum,                                    !- Outdoor Air Method
  0.0075,                                 !- Outdoor Air Flow per Person {m3/s-person}
  0.0003,                                 !- Outdoor Air Flow per Zone Floor Area {m3/s-m2}
  0,                                      !- Outdoor Air Flow per Zone {m3/s}
  0;                                      !- Outdoor Air Flow Air Changes per Hour {1/hr}

Zone,
  Zona P2_0_0,                            !- Name
  ,                                       !- Direction of Relative North {deg}
  0,                                      !- X Origin {m}
  0,                                      !- Y Origin {m}
  0,                                      !- Z Origin {m}
  ,                                       !- Type
  1,                                      !- Multiplier
  ,                                       !- Ceiling Height {m}
  ,                                       !- Volume {m3}
  ,                                       !- Floor Area {m2}
  ,                                       !- Zone Inside Convection Algorithm
  ,                                       !- Zone Outside Convection Algorithm
  Yes;                                    !- Part of Total Floor Area

Space,
  P2_0_0,                                 !- Name
  Zona P2_0_0,                            !- Zone Name
  ,                                       !- Ceiling Height {m}
  ,                                       !- Volume {m3}
  ;                                       !- Floor Area {m2}

BuildingSurface:Detailed,
  Surface 25,                             !- Name
  Floor,                                  !- Surface Type
  Laje concreto,                          !- Construction Name
  Zona P2_0_0,                            !- Zone Name
  P2_0_0,                                 !- Space Name
  Surface,                                !- Outside Boundary Condition
  Surface 6,                              !- Outside Boundary Condition Object
  NoSun,                                  !- Sun Exposure
  NoWind,                                 !- Wind Exposure
  ,                                       !- View Factor to Ground
  ,                                       !- Number of Vertices
  0, 0, 3.5,                              !- X,Y,Z Vertex 1 {m}
  0, 20, 3.5,                             !- X,Y,Z Vertex 2 {m}
  25, 20, 3.5,                            !- X,Y,Z Vertex 3 {m}
  25, 0, 3.5;                             !- X,Y,Z Vertex 4 {m}

BuildingSurface:Detailed,
  Surface 26,                             !- Name
  Wall,                                   !- Surface Type
  Alvenaria rebocada,                     !- Construction Name
  Zona P2_0_0,                            !- Zone Name
  P2_0_0,                                 !- Space Name
  Outdoors,                               !- Outside Boundary Condition
  ,                                       !- Outside Boundary Condition Object
  SunExposed,                             !- Sun Exposure
  WindExposed,                            !- Wind Exposure
  ,                                       !- View Factor to Ground
  ,                                       !- Number of Vertices
  0, 0, 7,                                !- X,Y,Z Vertex 1 {m}
  0, 20, 7,                               !- X,Y,Z Vertex 2 {m}
  0, 20, 3.5,                             !- X,Y,Z Vertex 3 {m}
  0, 0, 3.5;                              !- X,Y,Z Vertex 4 {m}

FenestrationSurface:Detailed,
  Sub Surface 12,                         !- Name
  Window,                                 !- Surface Type
  Vidro U3 SHGC0.4,                       !- Construction Name
  Surface 26,                             !- Building Surface Name
  ,                                       !- Outside Boundary Condition Object
  ,                                       !- View Factor to Ground
  ,                                       !- Frame and Divider Name
  ,                                       !- Multiplier
  ,                                       !- Number of Vertices
  0, 19.9746, 5.31467379143023,           !- X,Y,Z Vertex 1 {m}
  0, 19.9746, 4.262,                      !- X,Y,Z Vertex 2 {m}
  0, 0.0253999999999976, 4.262,           !- X,Y,Z Vertex 3 {m}
  0, 0.0253999999999976, 5.31467379143023; !- X,Y,Z Vertex 4 {m}

BuildingSurface:Detailed,
  Surface 27,                             !- Name
  Wall,                                   !- Surface Type
  Alvenaria rebocada,                     !- Construction Name
  Zona P2_0_0,                            !- Zone Name
  P2_0_0,                                 !- Space Name
  Surface,                                !- Outside Boundary Condition
  Surface 35,                             !- Outside Boundary Condition Object
  NoSun,                                  !- Sun Exposure
  NoWind,                                 !- Wind Exposure
  ,                                       !- View Factor to Ground
  ,                                       !- Number of Vertices
  0, 20, 7,                               !- X,Y,Z Vertex 1 {m}
  25, 20, 7,                              !- X,Y,Z Vertex 2 {m}
  25, 20, 3.5,                            !- X,Y,Z Vertex 3 {m}
  0, 20, 3.5;                             !- X,Y,Z Vertex 4 {m}

BuildingSurface:Detailed,
  Surface 28,                             !- Name
  Wall,                                   !- Surface Type
  Alvenaria rebocada,                     !- Construction Name
  Zona P2_0_0,                            !- Zone Name
  P2_0_0,                                 !- Space Name
  Surface,                                !- Outside Boundary Condition
  Surface 38,                             !- Outside Boundary Condition Object
  NoSun,                                  !- Sun Exposure
  NoWind,                                 !- Wind Exposure
  ,                                       !- View Factor to Ground
  ,                                       !- Number of Vertices
  25, 20, 7,                              !- X,Y,Z Vertex 1 {m}
  25, 0, 7,                               !- X,Y,Z Vertex 2 {m}
  25, 0, 3.5,                             !- X,Y,Z Vertex 3 {m}
  25, 20, 3.5;                            !- X,Y,Z Vertex 4 {m}

BuildingSurface:Detailed,
  Surface 29,                             !- Name
  Wall,                                   !- Surface Type
  Alvenaria rebocada,                     !- Construction Name
  Zona P2_0_0,                            !- Zone Name
  P2_0_0,                                 !- Space Name
  Outdoors,                               !- Outside Boundary Condition
  ,                                       !- Outside Boundary Condition Object
  SunExposed,                             !- Sun Exposure
  WindExposed,                            !- Wind Exposure
  ,                                       !- View Factor to Ground
  ,                                       !- Number of Vertices
  25, 0, 7,                               !- X,Y,Z Vertex 1 {m}
  0, 0, 7,                                !- X,Y,Z Vertex 2 {m}
  0, 0, 3.5,                              !- X,Y,Z Vertex 3 {m}
  25, 0, 3.5;                             !- X,Y,Z Vertex 4 {m}

FenestrationSurface:Detailed,
  Sub Surface 14,                         !- Name
  Window,                                 !- Surface Type
  Vidro U3 SHGC0.4,                       !- Construction Name
  Surface 29,                             !- Building Surface Name
  ,                                       !- Outside Boundary Condition Object
  ,                                       !- View Factor to Ground
  ,                                       !- Frame and Divider Name
  ,                                       !- Multiplier
  ,                                       !- Number of Vertices
  0.0254, 0, 5.31413794430282,            !- X,Y,Z Vertex 1 {m}
  0.0254, 0, 4.262,                       !- X,Y,Z Vertex 2 {m}
  24.9746, 0, 4.262,                      !- X,Y,Z Vertex 3 {m}
  24.9746, 0, 5.31413794430282;           !- X,Y,Z Vertex 4 {m}

BuildingSurface:Detailed,
  Surface 30,                             !- Name
  Ceiling,                                !- Surface Type
  Laje concreto,                          !- Construction Name
  Zona P2_0_0,                            !- Zone Name
  P2_0_0,                                 !- Space Name
  Surface,                                !- Outside Boundary Condition
  Surface 49,                             !- Outside Boundary Condition Object
  NoSun,                                  !- Sun Exposure
  NoWind,                                 !- Wind Exposure
  ,                                       !- View Factor to Ground
  ,                                       !- Number of Vertices
  25, 0, 7,                               !- X,Y,Z Vertex 1 {m}
  25, 20, 7,                              !- X,Y,Z Vertex 2 {m}
  0, 20, 7,                               !- X,Y,Z Vertex 3 {m}
  0, 0, 7;                                !- X,Y,Z Vertex 4 {m}

Lights,
  Lights 5,                               !- Name
  P2_0_0,                                 !- Zone or ZoneList or Space or SpaceList Name
  Iluminacao,                             !- Schedule Name
  Watts/Area,                             !- Design Level Calculation Method
  ,                                       !- Lighting Level {W}
  8,                                      !- Watts per Floor Area {W/m2}
  ,                                       !- Watts per Person {W/person}
  ,                                       !- Return Air Fraction
  ,                                       !- Fraction Radiant
  ,                                       !- Fraction Visible
  1,                                      !- Fraction Replaceable
  General;                                !- End-Use Subcategory

People,
  People 5,                               !- Name
  P2_0_0,                                 !- Zone or ZoneList or Space or SpaceList Name
  Ocupacao,                               !- Number of People Schedule Name
  People/Area,                            !- Number of People Calculation Method
  ,                                       !- Number of People
  0.08,                                   !- People per Floor Area {person/m2}
  ,                                       !- Floor Area per Person {m2/person}
  0.3,                                    !- Fraction Radiant
  ,                                       !- Sensible Heat Fraction
  Atividade sedentaria 120 W pessoa,      !- Activity Level Schedule Name
  ,                                       !- Carbon Dioxide Generation Rate {m3/s-W}
  ,                                       !- Enable ASHRAE 55 Comfort Warnings
  ,                                       !- Mean Radiant Temperature Calculation Type
  ,                                       !- Surface Name/Angle Factor List Name
  ,                                       !- Work Efficiency Schedule Name
  ClothingInsulationSchedule;             !- Clothing Insulation Calculation Method

ElectricEquipment,
  Electric Equipment 5,                   !- Name
  P2_0_0,                                 !- Zone or ZoneList or Space or SpaceList Name
  Computadores e demais equipamentos,     !- Schedule Name
  Watts/Area,                             !- Design Level Calculation Method
  ,                                       !- Design Level {W}
  12,                                     !- Watts per Floor Area {W/m2}
  ,                                       !- Watts per Person {W/person}
  ,                                       !- Fraction Latent
  ,                                       !- Fraction Radiant
  ,                                       !- Fraction Lost
  Computadores e cargas de escritorio;    !- End-Use Subcategory

ZoneInfiltration:DesignFlowRate,
  Space Infiltration Design Flow Rate 5,  !- Name
  P2_0_0,                                 !- Zone or ZoneList or Space or SpaceList Name
  Always On Discrete,                     !- Schedule Name
  AirChanges/Hour,                        !- Design Flow Rate Calculation Method
  ,                                       !- Design Flow Rate {m3/s}
  ,                                       !- Flow Rate per Floor Area {m3/s-m2}
  ,                                       !- Flow Rate per Exterior Surface Area {m3/s-m2}
  0.15,                                   !- Air Changes per Hour {1/hr}
  ,                                       !- Constant Term Coefficient
  ,                                       !- Temperature Term Coefficient
  ,                                       !- Velocity Term Coefficient
  ,                                       !- Velocity Squared Term Coefficient
  Outdoor;                                !- Density Basis

ZoneControl:Thermostat,
  Zona P2_0_0 Thermostat,                 !- Name
  Zona P2_0_0,                            !- Zone or ZoneList Name
  Zona P2_0_0 Thermostat Schedule,        !- Control Type Schedule Name
  ThermostatSetpoint:DualSetpoint,        !- Control 1 Object Type
  Thermostat Setpoint Dual Setpoint 5,    !- Control 1 Name
  ,                                       !- Control 2 Object Type
  ,                                       !- Control 2 Name
  ,                                       !- Control 3 Object Type
  ,                                       !- Control 3 Name
  ,                                       !- Control 4 Object Type
  ,                                       !- Control 4 Name
  0;                                      !- Temperature Difference Between Cutout And Setpoint {deltaC}

Schedule:Compact,
  Zona P2_0_0 Thermostat Schedule,        !- Name
  Zona P2_0_0 Thermostat Schedule Type Limits, !- Schedule Type Limits Name
  Through: 12/31,                         !- Field 1
  For: AllDays,                           !- Field 2
  Until: 24:00,                           !- Field 3
  4;                                      !- Field 4

ScheduleTypeLimits,
  Zona P2_0_0 Thermostat Schedule Type Limits, !- Name
  0,                                      !- Lower Limit Value {BasedOnField A3}
  4,                                      !- Upper Limit Value {BasedOnField A3}
  DISCRETE;                               !- Numeric Type

ThermostatSetpoint:DualSetpoint,
  Thermostat Setpoint Dual Setpoint 5,    !- Name
  Aquecimento 20C,                        !- Heating Setpoint Temperature Schedule Name
  Resfriamento 24C;                       !- Cooling Setpoint Temperature Schedule Name

ZoneHVAC:EquipmentConnections,
  Zona P2_0_0,                            !- Zone Name
  Zona P2_0_0 Equipment List,             !- Zone Conditioning Equipment List Name
  Zona P2_0_0 Inlet Node List,            !- Zone Air Inlet Node or NodeList Name
  Zona P2_0_0 Exhaust Node List,          !- Zone Air Exhaust Node or NodeList Name
  Node 13;                                !- Zone Air Node Name

NodeList,
  Zona P2_0_0 Inlet Node List,            !- Name
  Node 15;                                !- Node Name 1

NodeList,
  Zona P2_0_0 Exhaust Node List,          !- Name
  Node 14;                                !- Node Name 1

ZoneHVAC:PackagedTerminalAirConditioner,
  Ar condicionado P2_0_0,                 !- Name
  HVAC 07-22,                             !- Availability Schedule Name
  Node 14,                                !- Air Inlet Node Name
  Node 15,                                !- Air Outlet Node Name
  OutdoorAir:Mixer,                       !- Outdoor Air Mixer Object Type
  Ar condicionado P2_0_0 OA Mixer,        !- Outdoor Air Mixer Name
  Autosize,                               !- Cooling Supply Air Flow Rate {m3/s}
  Autosize,                               !- Heating Supply Air Flow Rate {m3/s}
  Autosize,                               !- No Load Supply Air Flow Rate {m3/s}
  Yes,                                    !- No Load Supply Air Flow Rate Control Set To Low Speed
  0.45,                                   !- Cooling Outdoor Air Flow Rate {m3/s}
  0.45,                                   !- Heating Outdoor Air Flow Rate {m3/s}
  0.45,                                   !- No Load Outdoor Air Flow Rate {m3/s}
  Fan:ConstantVolume,                     !- Supply Air Fan Object Type
  Fan Constant Volume 5,                  !- Supply Air Fan Name
  Coil:Heating:Electric,                  !- Heating Coil Object Type
  Coil Heating Electric 5,                !- Heating Coil Name
  Coil:Cooling:DX:SingleSpeed,            !- Cooling Coil Object Type
  Coil Cooling DX Single Speed 5,         !- Cooling Coil Name
  DrawThrough,                            !- Fan Placement
  Always On Discrete;                     !- Supply Air Fan Operating Mode Schedule Name

OutdoorAir:Mixer,
  Ar condicionado P2_0_0 OA Mixer,        !- Name
  Ar condicionado P2_0_0 Mixed Air Node,  !- Mixed Air Node Name
  Ar condicionado P2_0_0 OA Node,         !- Outdoor Air Stream Node Name
  Ar condicionado P2_0_0 Relief Air Node, !- Relief Air Stream Node Name
  Node 14;                                !- Return Air Stream Node Name

OutdoorAir:NodeList,
  Ar condicionado P2_0_0 OA Node;         !- Node or NodeList Name 1

Fan:ConstantVolume,
  Fan Constant Volume 5,                  !- Name
  Always On Discrete,                     !- Availability Schedule Name
  0.6,                                    !- Fan Total Efficiency
  350,                                    !- Pressure Rise {Pa}
  AutoSize,                               !- Maximum Flow Rate {m3/s}
  0.9,                                    !- Motor Efficiency
  1,                                      !- Motor In Airstream Fraction
  Ar condicionado P2_0_0 Heating Coil Outlet Node, !- Air Inlet Node Name
  Node 15,                                !- Air Outlet Node Name
  ;                                       !- End-Use Subcategory

Coil:Heating:Electric,
  Coil Heating Electric 5,                !- Name
  Always On Discrete,                     !- Availability Schedule Name
  1,                                      !- Efficiency
  Autosize,                               !- Nominal Capacity {W}
  Ar condicionado P2_0_0 Cooling Coil Outlet Node, !- Air Inlet Node Name
  Ar condicionado P2_0_0 Heating Coil Outlet Node; !- Air Outlet Node Name

Curve:Biquadratic,
  Curve Biquadratic 9,                    !- Name
  0.942587793,                            !- Coefficient1 Constant
  0.009543347,                            !- Coefficient2 x
  0.00068377,                             !- Coefficient3 x**2
  -0.011042676,                           !- Coefficient4 y
  5.249e-06,                              !- Coefficient5 y**2
  -9.72e-06,                              !- Coefficient6 x*y
  17,                                     !- Minimum Value of x {BasedOnField A2}
  22,                                     !- Maximum Value of x {BasedOnField A2}
  13,                                     !- Minimum Value of y {BasedOnField A3}
  46;                                     !- Maximum Value of y {BasedOnField A3}

Curve:Quadratic,
  Curve Quadratic 13,                     !- Name
  0.8,                                    !- Coefficient1 Constant
  0.2,                                    !- Coefficient2 x
  0,                                      !- Coefficient3 x**2
  0.5,                                    !- Minimum Value of x {BasedOnField A2}
  1.5;                                    !- Maximum Value of x {BasedOnField A2}

Curve:Biquadratic,
  Curve Biquadratic 10,                   !- Name
  0.342414409,                            !- Coefficient1 Constant
  0.034885008,                            !- Coefficient2 x
  -0.0006237,                             !- Coefficient3 x**2
  0.004977216,                            !- Coefficient4 y
  0.000437951,                            !- Coefficient5 y**2
  -0.000728028,                           !- Coefficient6 x*y
  17,                                     !- Minimum Value of x {BasedOnField A2}
  22,                                     !- Maximum Value of x {BasedOnField A2}
  13,                                     !- Minimum Value of y {BasedOnField A3}
  46;                                     !- Maximum Value of y {BasedOnField A3}

Curve:Quadratic,
  Curve Quadratic 14,                     !- Name
  1.1552,                                 !- Coefficient1 Constant
  -0.1808,                                !- Coefficient2 x
  0.0256,                                 !- Coefficient3 x**2
  0.5,                                    !- Minimum Value of x {BasedOnField A2}
  1.5;                                    !- Maximum Value of x {BasedOnField A2}

Curve:Quadratic,
  Curve Quadratic 15,                     !- Name
  0.85,                                   !- Coefficient1 Constant
  0.15,                                   !- Coefficient2 x
  0,                                      !- Coefficient3 x**2
  0,                                      !- Minimum Value of x {BasedOnField A2}
  1;                                      !- Maximum Value of x {BasedOnField A2}

Coil:Cooling:DX:SingleSpeed,
  Coil Cooling DX Single Speed 5,         !- Name
  Always On Discrete,                     !- Availability Schedule Name
  Autosize,                               !- Gross Rated Total Cooling Capacity {W}
  Autosize,                               !- Gross Rated Sensible Heat Ratio
  3.2,                                    !- Gross Rated Cooling COP {W/W}
  Autosize,                               !- Rated Air Flow Rate {m3/s}
  773.3,                                  !- Rated Evaporator Fan Power Per Volume Flow Rate 2017 {W/(m3/s)}
  934.4,                                  !- Rated Evaporator Fan Power Per Volume Flow Rate 2023 {W/(m3/s)}
  Ar condicionado P2_0_0 Mixed Air Node,  !- Air Inlet Node Name
  Ar condicionado P2_0_0 Cooling Coil Outlet Node, !- Air Outlet Node Name
  Curve Biquadratic 9,                    !- Total Cooling Capacity Function of Temperature Curve Name
  Curve Quadratic 13,                     !- Total Cooling Capacity Function of Flow Fraction Curve Name
  Curve Biquadratic 10,                   !- Energy Input Ratio Function of Temperature Curve Name
  Curve Quadratic 14,                     !- Energy Input Ratio Function of Flow Fraction Curve Name
  Curve Quadratic 15,                     !- Part Load Fraction Correlation Curve Name
  -25,                                    !- Minimum Outdoor Dry-Bulb Temperature for Compressor Operation {C}
  0,                                      !- Nominal Time for Condensate Removal to Begin {s}
  0,                                      !- Ratio of Initial Moisture Evaporation Rate and Steady State Latent Capacity {dimensionless}
  0,                                      !- Maximum Cycling Rate {cycles/hr}
  0,                                      !- Latent Capacity Time Constant {s}
  ,                                       !- Condenser Air Inlet Node Name
  AirCooled,                              !- Condenser Type
  0.9,                                    !- Evaporative Condenser Effectiveness {dimensionless}
  Autosize,                               !- Evaporative Condenser Air Flow Rate {m3/s}
  Autosize,                               !- Evaporative Condenser Pump Rated Power Consumption {W}
  0,                                      !- Crankcase Heater Capacity {W}
  ,                                       !- Crankcase Heater Capacity Function of Temperature Curve Name
  10,                                     !- Maximum Outdoor Dry-Bulb Temperature for Crankcase Heater Operation {C}
  ,                                       !- Supply Water Storage Tank Name
  ,                                       !- Condensate Collection Water Storage Tank Name
  0,                                      !- Basin Heater Capacity {W/K}
  2;                                      !- Basin Heater Setpoint Temperature {C}

ZoneHVAC:EquipmentList,
  Zona P2_0_0 Equipment List,             !- Name
  SequentialLoad,                         !- Load Distribution Scheme
  ZoneHVAC:PackagedTerminalAirConditioner, !- Zone Equipment Object Type 1
  Ar condicionado P2_0_0,                 !- Zone Equipment Name 1
  1,                                      !- Zone Equipment Cooling Sequence 1
  1,                                      !- Zone Equipment Heating or No-Load Sequence 1
  ,                                       !- Zone Equipment Sequential Cooling Fraction Schedule Name 1
  ;                                       !- Zone Equipment Sequential Heating Fraction Schedule Name 1

Sizing:Zone,
  Zona P2_0_0,                            !- Zone or ZoneList Name
  SupplyAirTemperature,                   !- Zone Cooling Design Supply Air Temperature Input Method
  14,                                     !- Zone Cooling Design Supply Air Temperature {C}
  11.11,                                  !- Zone Cooling Design Supply Air Temperature Difference {deltaC}
  SupplyAirTemperature,                   !- Zone Heating Design Supply Air Temperature Input Method
  40,                                     !- Zone Heating Design Supply Air Temperature {C}
  11.11,                                  !- Zone Heating Design Supply Air Temperature Difference {deltaC}
  0.0085,                                 !- Zone Cooling Design Supply Air Humidity Ratio {kgWater/kgDryAir}
  0.008,                                  !- Zone Heating Design Supply Air Humidity Ratio {kgWater/kgDryAir}
  Design Specification Outdoor Air 5,     !- Design Specification Outdoor Air Object Name
  ,                                       !- Zone Heating Sizing Factor
  ,                                       !- Zone Cooling Sizing Factor
  DesignDay,                              !- Cooling Design Air Flow Method
  0,                                      !- Cooling Design Air Flow Rate {m3/s}
  0.000762,                               !- Cooling Minimum Air Flow per Zone Floor Area {m3/s-m2}
  0,                                      !- Cooling Minimum Air Flow {m3/s}
  0,                                      !- Cooling Minimum Air Flow Fraction
  DesignDay,                              !- Heating Design Air Flow Method
  0,                                      !- Heating Design Air Flow Rate {m3/s}
  0.002032,                               !- Heating Maximum Air Flow per Zone Floor Area {m3/s-m2}
  0.1415762,                              !- Heating Maximum Air Flow {m3/s}
  0.3,                                    !- Heating Maximum Air Flow Fraction
  ,                                       !- Design Specification Zone Air Distribution Object Name
  No,                                     !- Account for Dedicated Outdoor Air System
  ,                                       !- Dedicated Outdoor Air System Control Strategy
  ,                                       !- Dedicated Outdoor Air Low Setpoint Temperature for Design {C}
  ,                                       !- Dedicated Outdoor Air High Setpoint Temperature for Design {C}
  Sensible Load Only No Latent Load,      !- Zone Load Sizing Method
  HumidityRatioDifference,                !- Zone Latent Cooling Design Supply Air Humidity Ratio Input Method
  ,                                       !- Zone Dehumidification Design Supply Air Humidity Ratio {kgWater/kgDryAir}
  0.005,                                  !- Zone Cooling Design Supply Air Humidity Ratio Difference {kgWater/kgDryAir}
  HumidityRatioDifference,                !- Zone Latent Heating Design Supply Air Humidity Ratio Input Method
  ,                                       !- Zone Humidification Design Supply Air Humidity Ratio {kgWater/kgDryAir}
  0.005,                                  !- Zone Humidification Design Supply Air Humidity Ratio Difference {kgWater/kgDryAir}
  ,                                       !- Zone Humidistat Dehumidification Set Point Schedule Name
  ,                                       !- Zone Humidistat Humidification Set Point Schedule Name
  Coincident,                             !- Type of Space Sum to Use
  None,                                   !- Heating Coil Sizing Method
  1;                                      !- Maximum Heating Capacity To Cooling Load Sizing Ratio {W/W}

DesignSpecification:OutdoorAir,
  Design Specification Outdoor Air 5,     !- Name
  Sum,                                    !- Outdoor Air Method
  0.0075,                                 !- Outdoor Air Flow per Person {m3/s-person}
  0.0003,                                 !- Outdoor Air Flow per Zone Floor Area {m3/s-m2}
  0,                                      !- Outdoor Air Flow per Zone {m3/s}
  0;                                      !- Outdoor Air Flow Air Changes per Hour {1/hr}

Zone,
  Zona P2_0_1,                            !- Name
  ,                                       !- Direction of Relative North {deg}
  0,                                      !- X Origin {m}
  0,                                      !- Y Origin {m}
  0,                                      !- Z Origin {m}
  ,                                       !- Type
  1,                                      !- Multiplier
  ,                                       !- Ceiling Height {m}
  ,                                       !- Volume {m3}
  ,                                       !- Floor Area {m2}
  ,                                       !- Zone Inside Convection Algorithm
  ,                                       !- Zone Outside Convection Algorithm
  Yes;                                    !- Part of Total Floor Area

Space,
  P2_0_1,                                 !- Name
  Zona P2_0_1,                            !- Zone Name
  ,                                       !- Ceiling Height {m}
  ,                                       !- Volume {m3}
  ;                                       !- Floor Area {m2}

BuildingSurface:Detailed,
  Surface 31,                             !- Name
  Floor,                                  !- Surface Type
  Laje concreto,                          !- Construction Name
  Zona P2_0_1,                            !- Zone Name
  P2_0_1,                                 !- Space Name
  Surface,                                !- Outside Boundary Condition
  Surface 12,                             !- Outside Boundary Condition Object
  NoSun,                                  !- Sun Exposure
  NoWind,                                 !- Wind Exposure
  ,                                       !- View Factor to Ground
  ,                                       !- Number of Vertices
  0, 20, 3.5,                             !- X,Y,Z Vertex 1 {m}
  0, 40, 3.5,                             !- X,Y,Z Vertex 2 {m}
  25, 40, 3.5,                            !- X,Y,Z Vertex 3 {m}
  25, 20, 3.5;                            !- X,Y,Z Vertex 4 {m}

BuildingSurface:Detailed,
  Surface 32,                             !- Name
  Wall,                                   !- Surface Type
  Alvenaria rebocada,                     !- Construction Name
  Zona P2_0_1,                            !- Zone Name
  P2_0_1,                                 !- Space Name
  Outdoors,                               !- Outside Boundary Condition
  ,                                       !- Outside Boundary Condition Object
  SunExposed,                             !- Sun Exposure
  WindExposed,                            !- Wind Exposure
  ,                                       !- View Factor to Ground
  ,                                       !- Number of Vertices
  0, 20, 7,                               !- X,Y,Z Vertex 1 {m}
  0, 40, 7,                               !- X,Y,Z Vertex 2 {m}
  0, 40, 3.5,                             !- X,Y,Z Vertex 3 {m}
  0, 20, 3.5;                             !- X,Y,Z Vertex 4 {m}

FenestrationSurface:Detailed,
  Sub Surface 15,                         !- Name
  Window,                                 !- Surface Type
  Vidro U3 SHGC0.4,                       !- Construction Name
  Surface 32,                             !- Building Surface Name
  ,                                       !- Outside Boundary Condition Object
  ,                                       !- View Factor to Ground
  ,                                       !- Frame and Divider Name
  ,                                       !- Multiplier
  ,                                       !- Number of Vertices
  0, 39.9746, 5.31467379143023,           !- X,Y,Z Vertex 1 {m}
  0, 39.9746, 4.262,                      !- X,Y,Z Vertex 2 {m}
  0, 20.0254, 4.262,                      !- X,Y,Z Vertex 3 {m}
  0, 20.0254, 5.31467379143023;           !- X,Y,Z Vertex 4 {m}

BuildingSurface:Detailed,
  Surface 33,                             !- Name
  Wall,                                   !- Surface Type
  Alvenaria rebocada,                     !- Construction Name
  Zona P2_0_1,                            !- Zone Name
  P2_0_1,                                 !- Space Name
  Outdoors,                               !- Outside Boundary Condition
  ,                                       !- Outside Boundary Condition Object
  SunExposed,                             !- Sun Exposure
  WindExposed,                            !- Wind Exposure
  ,                                       !- View Factor to Ground
  ,                                       !- Number of Vertices
  0, 40, 7,                               !- X,Y,Z Vertex 1 {m}
  25, 40, 7,                              !- X,Y,Z Vertex 2 {m}
  25, 40, 3.5,                            !- X,Y,Z Vertex 3 {m}
  0, 40, 3.5;                             !- X,Y,Z Vertex 4 {m}

FenestrationSurface:Detailed,
  Sub Surface 16,                         !- Name
  Window,                                 !- Surface Type
  Vidro U3 SHGC0.4,                       !- Construction Name
  Surface 33,                             !- Building Surface Name
  ,                                       !- Outside Boundary Condition Object
  ,                                       !- View Factor to Ground
  ,                                       !- Frame and Divider Name
  ,                                       !- Multiplier
  ,                                       !- Number of Vertices
  24.9746, 40, 5.31413794430282,          !- X,Y,Z Vertex 1 {m}
  24.9746, 40, 4.262,                     !- X,Y,Z Vertex 2 {m}
  0.0253999999999976, 40, 4.262,          !- X,Y,Z Vertex 3 {m}
  0.0253999999999976, 40, 5.31413794430282; !- X,Y,Z Vertex 4 {m}

BuildingSurface:Detailed,
  Surface 34,                             !- Name
  Wall,                                   !- Surface Type
  Alvenaria rebocada,                     !- Construction Name
  Zona P2_0_1,                            !- Zone Name
  P2_0_1,                                 !- Space Name
  Surface,                                !- Outside Boundary Condition
  Surface 44,                             !- Outside Boundary Condition Object
  NoSun,                                  !- Sun Exposure
  NoWind,                                 !- Wind Exposure
  ,                                       !- View Factor to Ground
  ,                                       !- Number of Vertices
  25, 40, 7,                              !- X,Y,Z Vertex 1 {m}
  25, 20, 7,                              !- X,Y,Z Vertex 2 {m}
  25, 20, 3.5,                            !- X,Y,Z Vertex 3 {m}
  25, 40, 3.5;                            !- X,Y,Z Vertex 4 {m}

BuildingSurface:Detailed,
  Surface 35,                             !- Name
  Wall,                                   !- Surface Type
  Alvenaria rebocada,                     !- Construction Name
  Zona P2_0_1,                            !- Zone Name
  P2_0_1,                                 !- Space Name
  Surface,                                !- Outside Boundary Condition
  Surface 27,                             !- Outside Boundary Condition Object
  NoSun,                                  !- Sun Exposure
  NoWind,                                 !- Wind Exposure
  ,                                       !- View Factor to Ground
  ,                                       !- Number of Vertices
  25, 20, 7,                              !- X,Y,Z Vertex 1 {m}
  0, 20, 7,                               !- X,Y,Z Vertex 2 {m}
  0, 20, 3.5,                             !- X,Y,Z Vertex 3 {m}
  25, 20, 3.5;                            !- X,Y,Z Vertex 4 {m}

BuildingSurface:Detailed,
  Surface 36,                             !- Name
  Ceiling,                                !- Surface Type
  Laje concreto,                          !- Construction Name
  Zona P2_0_1,                            !- Zone Name
  P2_0_1,                                 !- Space Name
  Surface,                                !- Outside Boundary Condition
  Surface 55,                             !- Outside Boundary Condition Object
  NoSun,                                  !- Sun Exposure
  NoWind,                                 !- Wind Exposure
  ,                                       !- View Factor to Ground
  ,                                       !- Number of Vertices
  25, 20, 7,                              !- X,Y,Z Vertex 1 {m}
  25, 40, 7,                              !- X,Y,Z Vertex 2 {m}
  0, 40, 7,                               !- X,Y,Z Vertex 3 {m}
  0, 20, 7;                               !- X,Y,Z Vertex 4 {m}

Lights,
  Lights 6,                               !- Name
  P2_0_1,                                 !- Zone or ZoneList or Space or SpaceList Name
  Iluminacao,                             !- Schedule Name
  Watts/Area,                             !- Design Level Calculation Method
  ,                                       !- Lighting Level {W}
  8,                                      !- Watts per Floor Area {W/m2}
  ,                                       !- Watts per Person {W/person}
  ,                                       !- Return Air Fraction
  ,                                       !- Fraction Radiant
  ,                                       !- Fraction Visible
  1,                                      !- Fraction Replaceable
  General;                                !- End-Use Subcategory

People,
  People 6,                               !- Name
  P2_0_1,                                 !- Zone or ZoneList or Space or SpaceList Name
  Ocupacao,                               !- Number of People Schedule Name
  People/Area,                            !- Number of People Calculation Method
  ,                                       !- Number of People
  0.08,                                   !- People per Floor Area {person/m2}
  ,                                       !- Floor Area per Person {m2/person}
  0.3,                                    !- Fraction Radiant
  ,                                       !- Sensible Heat Fraction
  Atividade sedentaria 120 W pessoa,      !- Activity Level Schedule Name
  ,                                       !- Carbon Dioxide Generation Rate {m3/s-W}
  ,                                       !- Enable ASHRAE 55 Comfort Warnings
  ,                                       !- Mean Radiant Temperature Calculation Type
  ,                                       !- Surface Name/Angle Factor List Name
  ,                                       !- Work Efficiency Schedule Name
  ClothingInsulationSchedule;             !- Clothing Insulation Calculation Method

ElectricEquipment,
  Electric Equipment 6,                   !- Name
  P2_0_1,                                 !- Zone or ZoneList or Space or SpaceList Name
  Computadores e demais equipamentos,     !- Schedule Name
  Watts/Area,                             !- Design Level Calculation Method
  ,                                       !- Design Level {W}
  12,                                     !- Watts per Floor Area {W/m2}
  ,                                       !- Watts per Person {W/person}
  ,                                       !- Fraction Latent
  ,                                       !- Fraction Radiant
  ,                                       !- Fraction Lost
  Computadores e cargas de escritorio;    !- End-Use Subcategory

ZoneInfiltration:DesignFlowRate,
  Space Infiltration Design Flow Rate 6,  !- Name
  P2_0_1,                                 !- Zone or ZoneList or Space or SpaceList Name
  Always On Discrete,                     !- Schedule Name
  AirChanges/Hour,                        !- Design Flow Rate Calculation Method
  ,                                       !- Design Flow Rate {m3/s}
  ,                                       !- Flow Rate per Floor Area {m3/s-m2}
  ,                                       !- Flow Rate per Exterior Surface Area {m3/s-m2}
  0.15,                                   !- Air Changes per Hour {1/hr}
  ,                                       !- Constant Term Coefficient
  ,                                       !- Temperature Term Coefficient
  ,                                       !- Velocity Term Coefficient
  ,                                       !- Velocity Squared Term Coefficient
  Outdoor;                                !- Density Basis

ZoneControl:Thermostat,
  Zona P2_0_1 Thermostat,                 !- Name
  Zona P2_0_1,                            !- Zone or ZoneList Name
  Zona P2_0_1 Thermostat Schedule,        !- Control Type Schedule Name
  ThermostatSetpoint:DualSetpoint,        !- Control 1 Object Type
  Thermostat Setpoint Dual Setpoint 6,    !- Control 1 Name
  ,                                       !- Control 2 Object Type
  ,                                       !- Control 2 Name
  ,                                       !- Control 3 Object Type
  ,                                       !- Control 3 Name
  ,                                       !- Control 4 Object Type
  ,                                       !- Control 4 Name
  0;                                      !- Temperature Difference Between Cutout And Setpoint {deltaC}

Schedule:Compact,
  Zona P2_0_1 Thermostat Schedule,        !- Name
  Zona P2_0_1 Thermostat Schedule Type Limits, !- Schedule Type Limits Name
  Through: 12/31,                         !- Field 1
  For: AllDays,                           !- Field 2
  Until: 24:00,                           !- Field 3
  4;                                      !- Field 4

ScheduleTypeLimits,
  Zona P2_0_1 Thermostat Schedule Type Limits, !- Name
  0,                                      !- Lower Limit Value {BasedOnField A3}
  4,                                      !- Upper Limit Value {BasedOnField A3}
  DISCRETE;                               !- Numeric Type

ThermostatSetpoint:DualSetpoint,
  Thermostat Setpoint Dual Setpoint 6,    !- Name
  Aquecimento 20C,                        !- Heating Setpoint Temperature Schedule Name
  Resfriamento 24C;                       !- Cooling Setpoint Temperature Schedule Name

ZoneHVAC:EquipmentConnections,
  Zona P2_0_1,                            !- Zone Name
  Zona P2_0_1 Equipment List,             !- Zone Conditioning Equipment List Name
  Zona P2_0_1 Inlet Node List,            !- Zone Air Inlet Node or NodeList Name
  Zona P2_0_1 Exhaust Node List,          !- Zone Air Exhaust Node or NodeList Name
  Node 16;                                !- Zone Air Node Name

NodeList,
  Zona P2_0_1 Inlet Node List,            !- Name
  Node 18;                                !- Node Name 1

NodeList,
  Zona P2_0_1 Exhaust Node List,          !- Name
  Node 17;                                !- Node Name 1

ZoneHVAC:PackagedTerminalAirConditioner,
  Ar condicionado P2_0_1,                 !- Name
  HVAC 07-22,                             !- Availability Schedule Name
  Node 17,                                !- Air Inlet Node Name
  Node 18,                                !- Air Outlet Node Name
  OutdoorAir:Mixer,                       !- Outdoor Air Mixer Object Type
  Ar condicionado P2_0_1 OA Mixer,        !- Outdoor Air Mixer Name
  Autosize,                               !- Cooling Supply Air Flow Rate {m3/s}
  Autosize,                               !- Heating Supply Air Flow Rate {m3/s}
  Autosize,                               !- No Load Supply Air Flow Rate {m3/s}
  Yes,                                    !- No Load Supply Air Flow Rate Control Set To Low Speed
  0.45,                                   !- Cooling Outdoor Air Flow Rate {m3/s}
  0.45,                                   !- Heating Outdoor Air Flow Rate {m3/s}
  0.45,                                   !- No Load Outdoor Air Flow Rate {m3/s}
  Fan:ConstantVolume,                     !- Supply Air Fan Object Type
  Fan Constant Volume 6,                  !- Supply Air Fan Name
  Coil:Heating:Electric,                  !- Heating Coil Object Type
  Coil Heating Electric 6,                !- Heating Coil Name
  Coil:Cooling:DX:SingleSpeed,            !- Cooling Coil Object Type
  Coil Cooling DX Single Speed 6,         !- Cooling Coil Name
  DrawThrough,                            !- Fan Placement
  Always On Discrete;                     !- Supply Air Fan Operating Mode Schedule Name

OutdoorAir:Mixer,
  Ar condicionado P2_0_1 OA Mixer,        !- Name
  Ar condicionado P2_0_1 Mixed Air Node,  !- Mixed Air Node Name
  Ar condicionado P2_0_1 OA Node,         !- Outdoor Air Stream Node Name
  Ar condicionado P2_0_1 Relief Air Node, !- Relief Air Stream Node Name
  Node 17;                                !- Return Air Stream Node Name

OutdoorAir:NodeList,
  Ar condicionado P2_0_1 OA Node;         !- Node or NodeList Name 1

Fan:ConstantVolume,
  Fan Constant Volume 6,                  !- Name
  Always On Discrete,                     !- Availability Schedule Name
  0.6,                                    !- Fan Total Efficiency
  350,                                    !- Pressure Rise {Pa}
  AutoSize,                               !- Maximum Flow Rate {m3/s}
  0.9,                                    !- Motor Efficiency
  1,                                      !- Motor In Airstream Fraction
  Ar condicionado P2_0_1 Heating Coil Outlet Node, !- Air Inlet Node Name
  Node 18,                                !- Air Outlet Node Name
  ;                                       !- End-Use Subcategory

Coil:Heating:Electric,
  Coil Heating Electric 6,                !- Name
  Always On Discrete,                     !- Availability Schedule Name
  1,                                      !- Efficiency
  Autosize,                               !- Nominal Capacity {W}
  Ar condicionado P2_0_1 Cooling Coil Outlet Node, !- Air Inlet Node Name
  Ar condicionado P2_0_1 Heating Coil Outlet Node; !- Air Outlet Node Name

Curve:Biquadratic,
  Curve Biquadratic 11,                   !- Name
  0.942587793,                            !- Coefficient1 Constant
  0.009543347,                            !- Coefficient2 x
  0.00068377,                             !- Coefficient3 x**2
  -0.011042676,                           !- Coefficient4 y
  5.249e-06,                              !- Coefficient5 y**2
  -9.72e-06,                              !- Coefficient6 x*y
  17,                                     !- Minimum Value of x {BasedOnField A2}
  22,                                     !- Maximum Value of x {BasedOnField A2}
  13,                                     !- Minimum Value of y {BasedOnField A3}
  46;                                     !- Maximum Value of y {BasedOnField A3}

Curve:Quadratic,
  Curve Quadratic 16,                     !- Name
  0.8,                                    !- Coefficient1 Constant
  0.2,                                    !- Coefficient2 x
  0,                                      !- Coefficient3 x**2
  0.5,                                    !- Minimum Value of x {BasedOnField A2}
  1.5;                                    !- Maximum Value of x {BasedOnField A2}

Curve:Biquadratic,
  Curve Biquadratic 12,                   !- Name
  0.342414409,                            !- Coefficient1 Constant
  0.034885008,                            !- Coefficient2 x
  -0.0006237,                             !- Coefficient3 x**2
  0.004977216,                            !- Coefficient4 y
  0.000437951,                            !- Coefficient5 y**2
  -0.000728028,                           !- Coefficient6 x*y
  17,                                     !- Minimum Value of x {BasedOnField A2}
  22,                                     !- Maximum Value of x {BasedOnField A2}
  13,                                     !- Minimum Value of y {BasedOnField A3}
  46;                                     !- Maximum Value of y {BasedOnField A3}

Curve:Quadratic,
  Curve Quadratic 17,                     !- Name
  1.1552,                                 !- Coefficient1 Constant
  -0.1808,                                !- Coefficient2 x
  0.0256,                                 !- Coefficient3 x**2
  0.5,                                    !- Minimum Value of x {BasedOnField A2}
  1.5;                                    !- Maximum Value of x {BasedOnField A2}

Curve:Quadratic,
  Curve Quadratic 18,                     !- Name
  0.85,                                   !- Coefficient1 Constant
  0.15,                                   !- Coefficient2 x
  0,                                      !- Coefficient3 x**2
  0,                                      !- Minimum Value of x {BasedOnField A2}
  1;                                      !- Maximum Value of x {BasedOnField A2}

Coil:Cooling:DX:SingleSpeed,
  Coil Cooling DX Single Speed 6,         !- Name
  Always On Discrete,                     !- Availability Schedule Name
  Autosize,                               !- Gross Rated Total Cooling Capacity {W}
  Autosize,                               !- Gross Rated Sensible Heat Ratio
  3.2,                                    !- Gross Rated Cooling COP {W/W}
  Autosize,                               !- Rated Air Flow Rate {m3/s}
  773.3,                                  !- Rated Evaporator Fan Power Per Volume Flow Rate 2017 {W/(m3/s)}
  934.4,                                  !- Rated Evaporator Fan Power Per Volume Flow Rate 2023 {W/(m3/s)}
  Ar condicionado P2_0_1 Mixed Air Node,  !- Air Inlet Node Name
  Ar condicionado P2_0_1 Cooling Coil Outlet Node, !- Air Outlet Node Name
  Curve Biquadratic 11,                   !- Total Cooling Capacity Function of Temperature Curve Name
  Curve Quadratic 16,                     !- Total Cooling Capacity Function of Flow Fraction Curve Name
  Curve Biquadratic 12,                   !- Energy Input Ratio Function of Temperature Curve Name
  Curve Quadratic 17,                     !- Energy Input Ratio Function of Flow Fraction Curve Name
  Curve Quadratic 18,                     !- Part Load Fraction Correlation Curve Name
  -25,                                    !- Minimum Outdoor Dry-Bulb Temperature for Compressor Operation {C}
  0,                                      !- Nominal Time for Condensate Removal to Begin {s}
  0,                                      !- Ratio of Initial Moisture Evaporation Rate and Steady State Latent Capacity {dimensionless}
  0,                                      !- Maximum Cycling Rate {cycles/hr}
  0,                                      !- Latent Capacity Time Constant {s}
  ,                                       !- Condenser Air Inlet Node Name
  AirCooled,                              !- Condenser Type
  0.9,                                    !- Evaporative Condenser Effectiveness {dimensionless}
  Autosize,                               !- Evaporative Condenser Air Flow Rate {m3/s}
  Autosize,                               !- Evaporative Condenser Pump Rated Power Consumption {W}
  0,                                      !- Crankcase Heater Capacity {W}
  ,                                       !- Crankcase Heater Capacity Function of Temperature Curve Name
  10,                                     !- Maximum Outdoor Dry-Bulb Temperature for Crankcase Heater Operation {C}
  ,                                       !- Supply Water Storage Tank Name
  ,                                       !- Condensate Collection Water Storage Tank Name
  0,                                      !- Basin Heater Capacity {W/K}
  2;                                      !- Basin Heater Setpoint Temperature {C}

ZoneHVAC:EquipmentList,
  Zona P2_0_1 Equipment List,             !- Name
  SequentialLoad,                         !- Load Distribution Scheme
  ZoneHVAC:PackagedTerminalAirConditioner, !- Zone Equipment Object Type 1
  Ar condicionado P2_0_1,                 !- Zone Equipment Name 1
  1,                                      !- Zone Equipment Cooling Sequence 1
  1,                                      !- Zone Equipment Heating or No-Load Sequence 1
  ,                                       !- Zone Equipment Sequential Cooling Fraction Schedule Name 1
  ;                                       !- Zone Equipment Sequential Heating Fraction Schedule Name 1

Sizing:Zone,
  Zona P2_0_1,                            !- Zone or ZoneList Name
  SupplyAirTemperature,                   !- Zone Cooling Design Supply Air Temperature Input Method
  14,                                     !- Zone Cooling Design Supply Air Temperature {C}
  11.11,                                  !- Zone Cooling Design Supply Air Temperature Difference {deltaC}
  SupplyAirTemperature,                   !- Zone Heating Design Supply Air Temperature Input Method
  40,                                     !- Zone Heating Design Supply Air Temperature {C}
  11.11,                                  !- Zone Heating Design Supply Air Temperature Difference {deltaC}
  0.0085,                                 !- Zone Cooling Design Supply Air Humidity Ratio {kgWater/kgDryAir}
  0.008,                                  !- Zone Heating Design Supply Air Humidity Ratio {kgWater/kgDryAir}
  Design Specification Outdoor Air 6,     !- Design Specification Outdoor Air Object Name
  ,                                       !- Zone Heating Sizing Factor
  ,                                       !- Zone Cooling Sizing Factor
  DesignDay,                              !- Cooling Design Air Flow Method
  0,                                      !- Cooling Design Air Flow Rate {m3/s}
  0.000762,                               !- Cooling Minimum Air Flow per Zone Floor Area {m3/s-m2}
  0,                                      !- Cooling Minimum Air Flow {m3/s}
  0,                                      !- Cooling Minimum Air Flow Fraction
  DesignDay,                              !- Heating Design Air Flow Method
  0,                                      !- Heating Design Air Flow Rate {m3/s}
  0.002032,                               !- Heating Maximum Air Flow per Zone Floor Area {m3/s-m2}
  0.1415762,                              !- Heating Maximum Air Flow {m3/s}
  0.3,                                    !- Heating Maximum Air Flow Fraction
  ,                                       !- Design Specification Zone Air Distribution Object Name
  No,                                     !- Account for Dedicated Outdoor Air System
  ,                                       !- Dedicated Outdoor Air System Control Strategy
  ,                                       !- Dedicated Outdoor Air Low Setpoint Temperature for Design {C}
  ,                                       !- Dedicated Outdoor Air High Setpoint Temperature for Design {C}
  Sensible Load Only No Latent Load,      !- Zone Load Sizing Method
  HumidityRatioDifference,                !- Zone Latent Cooling Design Supply Air Humidity Ratio Input Method
  ,                                       !- Zone Dehumidification Design Supply Air Humidity Ratio {kgWater/kgDryAir}
  0.005,                                  !- Zone Cooling Design Supply Air Humidity Ratio Difference {kgWater/kgDryAir}
  HumidityRatioDifference,                !- Zone Latent Heating Design Supply Air Humidity Ratio Input Method
  ,                                       !- Zone Humidification Design Supply Air Humidity Ratio {kgWater/kgDryAir}
  0.005,                                  !- Zone Humidification Design Supply Air Humidity Ratio Difference {kgWater/kgDryAir}
  ,                                       !- Zone Humidistat Dehumidification Set Point Schedule Name
  ,                                       !- Zone Humidistat Humidification Set Point Schedule Name
  Coincident,                             !- Type of Space Sum to Use
  None,                                   !- Heating Coil Sizing Method
  1;                                      !- Maximum Heating Capacity To Cooling Load Sizing Ratio {W/W}

DesignSpecification:OutdoorAir,
  Design Specification Outdoor Air 6,     !- Name
  Sum,                                    !- Outdoor Air Method
  0.0075,                                 !- Outdoor Air Flow per Person {m3/s-person}
  0.0003,                                 !- Outdoor Air Flow per Zone Floor Area {m3/s-m2}
  0,                                      !- Outdoor Air Flow per Zone {m3/s}
  0;                                      !- Outdoor Air Flow Air Changes per Hour {1/hr}

Zone,
  Zona P2_1_0,                            !- Name
  ,                                       !- Direction of Relative North {deg}
  0,                                      !- X Origin {m}
  0,                                      !- Y Origin {m}
  0,                                      !- Z Origin {m}
  ,                                       !- Type
  1,                                      !- Multiplier
  ,                                       !- Ceiling Height {m}
  ,                                       !- Volume {m3}
  ,                                       !- Floor Area {m2}
  ,                                       !- Zone Inside Convection Algorithm
  ,                                       !- Zone Outside Convection Algorithm
  Yes;                                    !- Part of Total Floor Area

Space,
  P2_1_0,                                 !- Name
  Zona P2_1_0,                            !- Zone Name
  ,                                       !- Ceiling Height {m}
  ,                                       !- Volume {m3}
  ;                                       !- Floor Area {m2}

BuildingSurface:Detailed,
  Surface 37,                             !- Name
  Floor,                                  !- Surface Type
  Laje concreto,                          !- Construction Name
  Zona P2_1_0,                            !- Zone Name
  P2_1_0,                                 !- Space Name
  Surface,                                !- Outside Boundary Condition
  Surface 18,                             !- Outside Boundary Condition Object
  NoSun,                                  !- Sun Exposure
  NoWind,                                 !- Wind Exposure
  ,                                       !- View Factor to Ground
  ,                                       !- Number of Vertices
  25, 0, 3.5,                             !- X,Y,Z Vertex 1 {m}
  25, 20, 3.5,                            !- X,Y,Z Vertex 2 {m}
  50, 20, 3.5,                            !- X,Y,Z Vertex 3 {m}
  50, 0, 3.5;                             !- X,Y,Z Vertex 4 {m}

BuildingSurface:Detailed,
  Surface 38,                             !- Name
  Wall,                                   !- Surface Type
  Alvenaria rebocada,                     !- Construction Name
  Zona P2_1_0,                            !- Zone Name
  P2_1_0,                                 !- Space Name
  Surface,                                !- Outside Boundary Condition
  Surface 28,                             !- Outside Boundary Condition Object
  NoSun,                                  !- Sun Exposure
  NoWind,                                 !- Wind Exposure
  ,                                       !- View Factor to Ground
  ,                                       !- Number of Vertices
  25, 0, 7,                               !- X,Y,Z Vertex 1 {m}
  25, 20, 7,                              !- X,Y,Z Vertex 2 {m}
  25, 20, 3.5,                            !- X,Y,Z Vertex 3 {m}
  25, 0, 3.5;                             !- X,Y,Z Vertex 4 {m}

BuildingSurface:Detailed,
  Surface 39,                             !- Name
  Wall,                                   !- Surface Type
  Alvenaria rebocada,                     !- Construction Name
  Zona P2_1_0,                            !- Zone Name
  P2_1_0,                                 !- Space Name
  Surface,                                !- Outside Boundary Condition
  Surface 47,                             !- Outside Boundary Condition Object
  NoSun,                                  !- Sun Exposure
  NoWind,                                 !- Wind Exposure
  ,                                       !- View Factor to Ground
  ,                                       !- Number of Vertices
  25, 20, 7,                              !- X,Y,Z Vertex 1 {m}
  50, 20, 7,                              !- X,Y,Z Vertex 2 {m}
  50, 20, 3.5,                            !- X,Y,Z Vertex 3 {m}
  25, 20, 3.5;                            !- X,Y,Z Vertex 4 {m}

BuildingSurface:Detailed,
  Surface 40,                             !- Name
  Wall,                                   !- Surface Type
  Alvenaria rebocada,                     !- Construction Name
  Zona P2_1_0,                            !- Zone Name
  P2_1_0,                                 !- Space Name
  Outdoors,                               !- Outside Boundary Condition
  ,                                       !- Outside Boundary Condition Object
  SunExposed,                             !- Sun Exposure
  WindExposed,                            !- Wind Exposure
  ,                                       !- View Factor to Ground
  ,                                       !- Number of Vertices
  50, 20, 7,                              !- X,Y,Z Vertex 1 {m}
  50, 0, 7,                               !- X,Y,Z Vertex 2 {m}
  50, 0, 3.5,                             !- X,Y,Z Vertex 3 {m}
  50, 20, 3.5;                            !- X,Y,Z Vertex 4 {m}

FenestrationSurface:Detailed,
  Sub Surface 19,                         !- Name
  Window,                                 !- Surface Type
  Vidro U3 SHGC0.4,                       !- Construction Name
  Surface 40,                             !- Building Surface Name
  ,                                       !- Outside Boundary Condition Object
  ,                                       !- View Factor to Ground
  ,                                       !- Frame and Divider Name
  ,                                       !- Multiplier
  ,                                       !- Number of Vertices
  50, 0.0254, 5.31467379143023,           !- X,Y,Z Vertex 1 {m}
  50, 0.0254, 4.262,                      !- X,Y,Z Vertex 2 {m}
  50, 19.9746, 4.262,                     !- X,Y,Z Vertex 3 {m}
  50, 19.9746, 5.31467379143023;          !- X,Y,Z Vertex 4 {m}

BuildingSurface:Detailed,
  Surface 41,                             !- Name
  Wall,                                   !- Surface Type
  Alvenaria rebocada,                     !- Construction Name
  Zona P2_1_0,                            !- Zone Name
  P2_1_0,                                 !- Space Name
  Outdoors,                               !- Outside Boundary Condition
  ,                                       !- Outside Boundary Condition Object
  SunExposed,                             !- Sun Exposure
  WindExposed,                            !- Wind Exposure
  ,                                       !- View Factor to Ground
  ,                                       !- Number of Vertices
  50, 0, 7,                               !- X,Y,Z Vertex 1 {m}
  25, 0, 7,                               !- X,Y,Z Vertex 2 {m}
  25, 0, 3.5,                             !- X,Y,Z Vertex 3 {m}
  50, 0, 3.5;                             !- X,Y,Z Vertex 4 {m}

FenestrationSurface:Detailed,
  Sub Surface 20,                         !- Name
  Window,                                 !- Surface Type
  Vidro U3 SHGC0.4,                       !- Construction Name
  Surface 41,                             !- Building Surface Name
  ,                                       !- Outside Boundary Condition Object
  ,                                       !- View Factor to Ground
  ,                                       !- Frame and Divider Name
  ,                                       !- Multiplier
  ,                                       !- Number of Vertices
  25.0254, 0, 5.31413794430282,           !- X,Y,Z Vertex 1 {m}
  25.0254, 0, 4.262,                      !- X,Y,Z Vertex 2 {m}
  49.9746, 0, 4.262,                      !- X,Y,Z Vertex 3 {m}
  49.9746, 0, 5.31413794430282;           !- X,Y,Z Vertex 4 {m}

BuildingSurface:Detailed,
  Surface 42,                             !- Name
  Ceiling,                                !- Surface Type
  Laje concreto,                          !- Construction Name
  Zona P2_1_0,                            !- Zone Name
  P2_1_0,                                 !- Space Name
  Surface,                                !- Outside Boundary Condition
  Surface 61,                             !- Outside Boundary Condition Object
  NoSun,                                  !- Sun Exposure
  NoWind,                                 !- Wind Exposure
  ,                                       !- View Factor to Ground
  ,                                       !- Number of Vertices
  50, 0, 7,                               !- X,Y,Z Vertex 1 {m}
  50, 20, 7,                              !- X,Y,Z Vertex 2 {m}
  25, 20, 7,                              !- X,Y,Z Vertex 3 {m}
  25, 0, 7;                               !- X,Y,Z Vertex 4 {m}

Lights,
  Lights 7,                               !- Name
  P2_1_0,                                 !- Zone or ZoneList or Space or SpaceList Name
  Iluminacao,                             !- Schedule Name
  Watts/Area,                             !- Design Level Calculation Method
  ,                                       !- Lighting Level {W}
  8,                                      !- Watts per Floor Area {W/m2}
  ,                                       !- Watts per Person {W/person}
  ,                                       !- Return Air Fraction
  ,                                       !- Fraction Radiant
  ,                                       !- Fraction Visible
  1,                                      !- Fraction Replaceable
  General;                                !- End-Use Subcategory

People,
  People 7,                               !- Name
  P2_1_0,                                 !- Zone or ZoneList or Space or SpaceList Name
  Ocupacao,                               !- Number of People Schedule Name
  People/Area,                            !- Number of People Calculation Method
  ,                                       !- Number of People
  0.08,                                   !- People per Floor Area {person/m2}
  ,                                       !- Floor Area per Person {m2/person}
  0.3,                                    !- Fraction Radiant
  ,                                       !- Sensible Heat Fraction
  Atividade sedentaria 120 W pessoa,      !- Activity Level Schedule Name
  ,                                       !- Carbon Dioxide Generation Rate {m3/s-W}
  ,                                       !- Enable ASHRAE 55 Comfort Warnings
  ,                                       !- Mean Radiant Temperature Calculation Type
  ,                                       !- Surface Name/Angle Factor List Name
  ,                                       !- Work Efficiency Schedule Name
  ClothingInsulationSchedule;             !- Clothing Insulation Calculation Method

ElectricEquipment,
  Electric Equipment 7,                   !- Name
  P2_1_0,                                 !- Zone or ZoneList or Space or SpaceList Name
  Computadores e demais equipamentos,     !- Schedule Name
  Watts/Area,                             !- Design Level Calculation Method
  ,                                       !- Design Level {W}
  12,                                     !- Watts per Floor Area {W/m2}
  ,                                       !- Watts per Person {W/person}
  ,                                       !- Fraction Latent
  ,                                       !- Fraction Radiant
  ,                                       !- Fraction Lost
  Computadores e cargas de escritorio;    !- End-Use Subcategory

ZoneInfiltration:DesignFlowRate,
  Space Infiltration Design Flow Rate 7,  !- Name
  P2_1_0,                                 !- Zone or ZoneList or Space or SpaceList Name
  Always On Discrete,                     !- Schedule Name
  AirChanges/Hour,                        !- Design Flow Rate Calculation Method
  ,                                       !- Design Flow Rate {m3/s}
  ,                                       !- Flow Rate per Floor Area {m3/s-m2}
  ,                                       !- Flow Rate per Exterior Surface Area {m3/s-m2}
  0.15,                                   !- Air Changes per Hour {1/hr}
  ,                                       !- Constant Term Coefficient
  ,                                       !- Temperature Term Coefficient
  ,                                       !- Velocity Term Coefficient
  ,                                       !- Velocity Squared Term Coefficient
  Outdoor;                                !- Density Basis

ZoneControl:Thermostat,
  Zona P2_1_0 Thermostat,                 !- Name
  Zona P2_1_0,                            !- Zone or ZoneList Name
  Zona P2_1_0 Thermostat Schedule,        !- Control Type Schedule Name
  ThermostatSetpoint:DualSetpoint,        !- Control 1 Object Type
  Thermostat Setpoint Dual Setpoint 7,    !- Control 1 Name
  ,                                       !- Control 2 Object Type
  ,                                       !- Control 2 Name
  ,                                       !- Control 3 Object Type
  ,                                       !- Control 3 Name
  ,                                       !- Control 4 Object Type
  ,                                       !- Control 4 Name
  0;                                      !- Temperature Difference Between Cutout And Setpoint {deltaC}

Schedule:Compact,
  Zona P2_1_0 Thermostat Schedule,        !- Name
  Zona P2_1_0 Thermostat Schedule Type Limits, !- Schedule Type Limits Name
  Through: 12/31,                         !- Field 1
  For: AllDays,                           !- Field 2
  Until: 24:00,                           !- Field 3
  4;                                      !- Field 4

ScheduleTypeLimits,
  Zona P2_1_0 Thermostat Schedule Type Limits, !- Name
  0,                                      !- Lower Limit Value {BasedOnField A3}
  4,                                      !- Upper Limit Value {BasedOnField A3}
  DISCRETE;                               !- Numeric Type

ThermostatSetpoint:DualSetpoint,
  Thermostat Setpoint Dual Setpoint 7,    !- Name
  Aquecimento 20C,                        !- Heating Setpoint Temperature Schedule Name
  Resfriamento 24C;                       !- Cooling Setpoint Temperature Schedule Name

ZoneHVAC:EquipmentConnections,
  Zona P2_1_0,                            !- Zone Name
  Zona P2_1_0 Equipment List,             !- Zone Conditioning Equipment List Name
  Zona P2_1_0 Inlet Node List,            !- Zone Air Inlet Node or NodeList Name
  Zona P2_1_0 Exhaust Node List,          !- Zone Air Exhaust Node or NodeList Name
  Node 19;                                !- Zone Air Node Name

NodeList,
  Zona P2_1_0 Inlet Node List,            !- Name
  Node 21;                                !- Node Name 1

NodeList,
  Zona P2_1_0 Exhaust Node List,          !- Name
  Node 20;                                !- Node Name 1

ZoneHVAC:PackagedTerminalAirConditioner,
  Ar condicionado P2_1_0,                 !- Name
  HVAC 07-22,                             !- Availability Schedule Name
  Node 20,                                !- Air Inlet Node Name
  Node 21,                                !- Air Outlet Node Name
  OutdoorAir:Mixer,                       !- Outdoor Air Mixer Object Type
  Ar condicionado P2_1_0 OA Mixer,        !- Outdoor Air Mixer Name
  Autosize,                               !- Cooling Supply Air Flow Rate {m3/s}
  Autosize,                               !- Heating Supply Air Flow Rate {m3/s}
  Autosize,                               !- No Load Supply Air Flow Rate {m3/s}
  Yes,                                    !- No Load Supply Air Flow Rate Control Set To Low Speed
  0.45,                                   !- Cooling Outdoor Air Flow Rate {m3/s}
  0.45,                                   !- Heating Outdoor Air Flow Rate {m3/s}
  0.45,                                   !- No Load Outdoor Air Flow Rate {m3/s}
  Fan:ConstantVolume,                     !- Supply Air Fan Object Type
  Fan Constant Volume 7,                  !- Supply Air Fan Name
  Coil:Heating:Electric,                  !- Heating Coil Object Type
  Coil Heating Electric 7,                !- Heating Coil Name
  Coil:Cooling:DX:SingleSpeed,            !- Cooling Coil Object Type
  Coil Cooling DX Single Speed 7,         !- Cooling Coil Name
  DrawThrough,                            !- Fan Placement
  Always On Discrete;                     !- Supply Air Fan Operating Mode Schedule Name

OutdoorAir:Mixer,
  Ar condicionado P2_1_0 OA Mixer,        !- Name
  Ar condicionado P2_1_0 Mixed Air Node,  !- Mixed Air Node Name
  Ar condicionado P2_1_0 OA Node,         !- Outdoor Air Stream Node Name
  Ar condicionado P2_1_0 Relief Air Node, !- Relief Air Stream Node Name
  Node 20;                                !- Return Air Stream Node Name

OutdoorAir:NodeList,
  Ar condicionado P2_1_0 OA Node;         !- Node or NodeList Name 1

Fan:ConstantVolume,
  Fan Constant Volume 7,                  !- Name
  Always On Discrete,                     !- Availability Schedule Name
  0.6,                                    !- Fan Total Efficiency
  350,                                    !- Pressure Rise {Pa}
  AutoSize,                               !- Maximum Flow Rate {m3/s}
  0.9,                                    !- Motor Efficiency
  1,                                      !- Motor In Airstream Fraction
  Ar condicionado P2_1_0 Heating Coil Outlet Node, !- Air Inlet Node Name
  Node 21,                                !- Air Outlet Node Name
  ;                                       !- End-Use Subcategory

Coil:Heating:Electric,
  Coil Heating Electric 7,                !- Name
  Always On Discrete,                     !- Availability Schedule Name
  1,                                      !- Efficiency
  Autosize,                               !- Nominal Capacity {W}
  Ar condicionado P2_1_0 Cooling Coil Outlet Node, !- Air Inlet Node Name
  Ar condicionado P2_1_0 Heating Coil Outlet Node; !- Air Outlet Node Name

Curve:Biquadratic,
  Curve Biquadratic 13,                   !- Name
  0.942587793,                            !- Coefficient1 Constant
  0.009543347,                            !- Coefficient2 x
  0.00068377,                             !- Coefficient3 x**2
  -0.011042676,                           !- Coefficient4 y
  5.249e-06,                              !- Coefficient5 y**2
  -9.72e-06,                              !- Coefficient6 x*y
  17,                                     !- Minimum Value of x {BasedOnField A2}
  22,                                     !- Maximum Value of x {BasedOnField A2}
  13,                                     !- Minimum Value of y {BasedOnField A3}
  46;                                     !- Maximum Value of y {BasedOnField A3}

Curve:Quadratic,
  Curve Quadratic 19,                     !- Name
  0.8,                                    !- Coefficient1 Constant
  0.2,                                    !- Coefficient2 x
  0,                                      !- Coefficient3 x**2
  0.5,                                    !- Minimum Value of x {BasedOnField A2}
  1.5;                                    !- Maximum Value of x {BasedOnField A2}

Curve:Biquadratic,
  Curve Biquadratic 14,                   !- Name
  0.342414409,                            !- Coefficient1 Constant
  0.034885008,                            !- Coefficient2 x
  -0.0006237,                             !- Coefficient3 x**2
  0.004977216,                            !- Coefficient4 y
  0.000437951,                            !- Coefficient5 y**2
  -0.000728028,                           !- Coefficient6 x*y
  17,                                     !- Minimum Value of x {BasedOnField A2}
  22,                                     !- Maximum Value of x {BasedOnField A2}
  13,                                     !- Minimum Value of y {BasedOnField A3}
  46;                                     !- Maximum Value of y {BasedOnField A3}

Curve:Quadratic,
  Curve Quadratic 20,                     !- Name
  1.1552,                                 !- Coefficient1 Constant
  -0.1808,                                !- Coefficient2 x
  0.0256,                                 !- Coefficient3 x**2
  0.5,                                    !- Minimum Value of x {BasedOnField A2}
  1.5;                                    !- Maximum Value of x {BasedOnField A2}

Curve:Quadratic,
  Curve Quadratic 21,                     !- Name
  0.85,                                   !- Coefficient1 Constant
  0.15,                                   !- Coefficient2 x
  0,                                      !- Coefficient3 x**2
  0,                                      !- Minimum Value of x {BasedOnField A2}
  1;                                      !- Maximum Value of x {BasedOnField A2}

Coil:Cooling:DX:SingleSpeed,
  Coil Cooling DX Single Speed 7,         !- Name
  Always On Discrete,                     !- Availability Schedule Name
  Autosize,                               !- Gross Rated Total Cooling Capacity {W}
  Autosize,                               !- Gross Rated Sensible Heat Ratio
  3.2,                                    !- Gross Rated Cooling COP {W/W}
  Autosize,                               !- Rated Air Flow Rate {m3/s}
  773.3,                                  !- Rated Evaporator Fan Power Per Volume Flow Rate 2017 {W/(m3/s)}
  934.4,                                  !- Rated Evaporator Fan Power Per Volume Flow Rate 2023 {W/(m3/s)}
  Ar condicionado P2_1_0 Mixed Air Node,  !- Air Inlet Node Name
  Ar condicionado P2_1_0 Cooling Coil Outlet Node, !- Air Outlet Node Name
  Curve Biquadratic 13,                   !- Total Cooling Capacity Function of Temperature Curve Name
  Curve Quadratic 19,                     !- Total Cooling Capacity Function of Flow Fraction Curve Name
  Curve Biquadratic 14,                   !- Energy Input Ratio Function of Temperature Curve Name
  Curve Quadratic 20,                     !- Energy Input Ratio Function of Flow Fraction Curve Name
  Curve Quadratic 21,                     !- Part Load Fraction Correlation Curve Name
  -25,                                    !- Minimum Outdoor Dry-Bulb Temperature for Compressor Operation {C}
  0,                                      !- Nominal Time for Condensate Removal to Begin {s}
  0,                                      !- Ratio of Initial Moisture Evaporation Rate and Steady State Latent Capacity {dimensionless}
  0,                                      !- Maximum Cycling Rate {cycles/hr}
  0,                                      !- Latent Capacity Time Constant {s}
  ,                                       !- Condenser Air Inlet Node Name
  AirCooled,                              !- Condenser Type
  0.9,                                    !- Evaporative Condenser Effectiveness {dimensionless}
  Autosize,                               !- Evaporative Condenser Air Flow Rate {m3/s}
  Autosize,                               !- Evaporative Condenser Pump Rated Power Consumption {W}
  0,                                      !- Crankcase Heater Capacity {W}
  ,                                       !- Crankcase Heater Capacity Function of Temperature Curve Name
  10,                                     !- Maximum Outdoor Dry-Bulb Temperature for Crankcase Heater Operation {C}
  ,                                       !- Supply Water Storage Tank Name
  ,                                       !- Condensate Collection Water Storage Tank Name
  0,                                      !- Basin Heater Capacity {W/K}
  2;                                      !- Basin Heater Setpoint Temperature {C}

ZoneHVAC:EquipmentList,
  Zona P2_1_0 Equipment List,             !- Name
  SequentialLoad,                         !- Load Distribution Scheme
  ZoneHVAC:PackagedTerminalAirConditioner, !- Zone Equipment Object Type 1
  Ar condicionado P2_1_0,                 !- Zone Equipment Name 1
  1,                                      !- Zone Equipment Cooling Sequence 1
  1,                                      !- Zone Equipment Heating or No-Load Sequence 1
  ,                                       !- Zone Equipment Sequential Cooling Fraction Schedule Name 1
  ;                                       !- Zone Equipment Sequential Heating Fraction Schedule Name 1

Sizing:Zone,
  Zona P2_1_0,                            !- Zone or ZoneList Name
  SupplyAirTemperature,                   !- Zone Cooling Design Supply Air Temperature Input Method
  14,                                     !- Zone Cooling Design Supply Air Temperature {C}
  11.11,                                  !- Zone Cooling Design Supply Air Temperature Difference {deltaC}
  SupplyAirTemperature,                   !- Zone Heating Design Supply Air Temperature Input Method
  40,                                     !- Zone Heating Design Supply Air Temperature {C}
  11.11,                                  !- Zone Heating Design Supply Air Temperature Difference {deltaC}
  0.0085,                                 !- Zone Cooling Design Supply Air Humidity Ratio {kgWater/kgDryAir}
  0.008,                                  !- Zone Heating Design Supply Air Humidity Ratio {kgWater/kgDryAir}
  Design Specification Outdoor Air 7,     !- Design Specification Outdoor Air Object Name
  ,                                       !- Zone Heating Sizing Factor
  ,                                       !- Zone Cooling Sizing Factor
  DesignDay,                              !- Cooling Design Air Flow Method
  0,                                      !- Cooling Design Air Flow Rate {m3/s}
  0.000762,                               !- Cooling Minimum Air Flow per Zone Floor Area {m3/s-m2}
  0,                                      !- Cooling Minimum Air Flow {m3/s}
  0,                                      !- Cooling Minimum Air Flow Fraction
  DesignDay,                              !- Heating Design Air Flow Method
  0,                                      !- Heating Design Air Flow Rate {m3/s}
  0.002032,                               !- Heating Maximum Air Flow per Zone Floor Area {m3/s-m2}
  0.1415762,                              !- Heating Maximum Air Flow {m3/s}
  0.3,                                    !- Heating Maximum Air Flow Fraction
  ,                                       !- Design Specification Zone Air Distribution Object Name
  No,                                     !- Account for Dedicated Outdoor Air System
  ,                                       !- Dedicated Outdoor Air System Control Strategy
  ,                                       !- Dedicated Outdoor Air Low Setpoint Temperature for Design {C}
  ,                                       !- Dedicated Outdoor Air High Setpoint Temperature for Design {C}
  Sensible Load Only No Latent Load,      !- Zone Load Sizing Method
  HumidityRatioDifference,                !- Zone Latent Cooling Design Supply Air Humidity Ratio Input Method
  ,                                       !- Zone Dehumidification Design Supply Air Humidity Ratio {kgWater/kgDryAir}
  0.005,                                  !- Zone Cooling Design Supply Air Humidity Ratio Difference {kgWater/kgDryAir}
  HumidityRatioDifference,                !- Zone Latent Heating Design Supply Air Humidity Ratio Input Method
  ,                                       !- Zone Humidification Design Supply Air Humidity Ratio {kgWater/kgDryAir}
  0.005,                                  !- Zone Humidification Design Supply Air Humidity Ratio Difference {kgWater/kgDryAir}
  ,                                       !- Zone Humidistat Dehumidification Set Point Schedule Name
  ,                                       !- Zone Humidistat Humidification Set Point Schedule Name
  Coincident,                             !- Type of Space Sum to Use
  None,                                   !- Heating Coil Sizing Method
  1;                                      !- Maximum Heating Capacity To Cooling Load Sizing Ratio {W/W}

DesignSpecification:OutdoorAir,
  Design Specification Outdoor Air 7,     !- Name
  Sum,                                    !- Outdoor Air Method
  0.0075,                                 !- Outdoor Air Flow per Person {m3/s-person}
  0.0003,                                 !- Outdoor Air Flow per Zone Floor Area {m3/s-m2}
  0,                                      !- Outdoor Air Flow per Zone {m3/s}
  0;                                      !- Outdoor Air Flow Air Changes per Hour {1/hr}

Zone,
  Zona P2_1_1,                            !- Name
  ,                                       !- Direction of Relative North {deg}
  0,                                      !- X Origin {m}
  0,                                      !- Y Origin {m}
  0,                                      !- Z Origin {m}
  ,                                       !- Type
  1,                                      !- Multiplier
  ,                                       !- Ceiling Height {m}
  ,                                       !- Volume {m3}
  ,                                       !- Floor Area {m2}
  ,                                       !- Zone Inside Convection Algorithm
  ,                                       !- Zone Outside Convection Algorithm
  Yes;                                    !- Part of Total Floor Area

Space,
  P2_1_1,                                 !- Name
  Zona P2_1_1,                            !- Zone Name
  ,                                       !- Ceiling Height {m}
  ,                                       !- Volume {m3}
  ;                                       !- Floor Area {m2}

BuildingSurface:Detailed,
  Surface 43,                             !- Name
  Floor,                                  !- Surface Type
  Laje concreto,                          !- Construction Name
  Zona P2_1_1,                            !- Zone Name
  P2_1_1,                                 !- Space Name
  Surface,                                !- Outside Boundary Condition
  Surface 24,                             !- Outside Boundary Condition Object
  NoSun,                                  !- Sun Exposure
  NoWind,                                 !- Wind Exposure
  ,                                       !- View Factor to Ground
  ,                                       !- Number of Vertices
  25, 20, 3.5,                            !- X,Y,Z Vertex 1 {m}
  25, 40, 3.5,                            !- X,Y,Z Vertex 2 {m}
  50, 40, 3.5,                            !- X,Y,Z Vertex 3 {m}
  50, 20, 3.5;                            !- X,Y,Z Vertex 4 {m}

BuildingSurface:Detailed,
  Surface 44,                             !- Name
  Wall,                                   !- Surface Type
  Alvenaria rebocada,                     !- Construction Name
  Zona P2_1_1,                            !- Zone Name
  P2_1_1,                                 !- Space Name
  Surface,                                !- Outside Boundary Condition
  Surface 34,                             !- Outside Boundary Condition Object
  NoSun,                                  !- Sun Exposure
  NoWind,                                 !- Wind Exposure
  ,                                       !- View Factor to Ground
  ,                                       !- Number of Vertices
  25, 20, 7,                              !- X,Y,Z Vertex 1 {m}
  25, 40, 7,                              !- X,Y,Z Vertex 2 {m}
  25, 40, 3.5,                            !- X,Y,Z Vertex 3 {m}
  25, 20, 3.5;                            !- X,Y,Z Vertex 4 {m}

BuildingSurface:Detailed,
  Surface 45,                             !- Name
  Wall,                                   !- Surface Type
  Alvenaria rebocada,                     !- Construction Name
  Zona P2_1_1,                            !- Zone Name
  P2_1_1,                                 !- Space Name
  Outdoors,                               !- Outside Boundary Condition
  ,                                       !- Outside Boundary Condition Object
  SunExposed,                             !- Sun Exposure
  WindExposed,                            !- Wind Exposure
  ,                                       !- View Factor to Ground
  ,                                       !- Number of Vertices
  25, 40, 7,                              !- X,Y,Z Vertex 1 {m}
  50, 40, 7,                              !- X,Y,Z Vertex 2 {m}
  50, 40, 3.5,                            !- X,Y,Z Vertex 3 {m}
  25, 40, 3.5;                            !- X,Y,Z Vertex 4 {m}

FenestrationSurface:Detailed,
  Sub Surface 18,                         !- Name
  Window,                                 !- Surface Type
  Vidro U3 SHGC0.4,                       !- Construction Name
  Surface 45,                             !- Building Surface Name
  ,                                       !- Outside Boundary Condition Object
  ,                                       !- View Factor to Ground
  ,                                       !- Frame and Divider Name
  ,                                       !- Multiplier
  ,                                       !- Number of Vertices
  49.9746, 40, 5.31413794430282,          !- X,Y,Z Vertex 1 {m}
  49.9746, 40, 4.262,                     !- X,Y,Z Vertex 2 {m}
  25.0254, 40, 4.262,                     !- X,Y,Z Vertex 3 {m}
  25.0254, 40, 5.31413794430282;          !- X,Y,Z Vertex 4 {m}

BuildingSurface:Detailed,
  Surface 46,                             !- Name
  Wall,                                   !- Surface Type
  Alvenaria rebocada,                     !- Construction Name
  Zona P2_1_1,                            !- Zone Name
  P2_1_1,                                 !- Space Name
  Outdoors,                               !- Outside Boundary Condition
  ,                                       !- Outside Boundary Condition Object
  SunExposed,                             !- Sun Exposure
  WindExposed,                            !- Wind Exposure
  ,                                       !- View Factor to Ground
  ,                                       !- Number of Vertices
  50, 40, 7,                              !- X,Y,Z Vertex 1 {m}
  50, 20, 7,                              !- X,Y,Z Vertex 2 {m}
  50, 20, 3.5,                            !- X,Y,Z Vertex 3 {m}
  50, 40, 3.5;                            !- X,Y,Z Vertex 4 {m}

FenestrationSurface:Detailed,
  Sub Surface 17,                         !- Name
  Window,                                 !- Surface Type
  Vidro U3 SHGC0.4,                       !- Construction Name
  Surface 46,                             !- Building Surface Name
  ,                                       !- Outside Boundary Condition Object
  ,                                       !- View Factor to Ground
  ,                                       !- Frame and Divider Name
  ,                                       !- Multiplier
  ,                                       !- Number of Vertices
  50, 20.0254, 5.31467379143023,          !- X,Y,Z Vertex 1 {m}
  50, 20.0254, 4.262,                     !- X,Y,Z Vertex 2 {m}
  50, 39.9746, 4.262,                     !- X,Y,Z Vertex 3 {m}
  50, 39.9746, 5.31467379143023;          !- X,Y,Z Vertex 4 {m}

BuildingSurface:Detailed,
  Surface 47,                             !- Name
  Wall,                                   !- Surface Type
  Alvenaria rebocada,                     !- Construction Name
  Zona P2_1_1,                            !- Zone Name
  P2_1_1,                                 !- Space Name
  Surface,                                !- Outside Boundary Condition
  Surface 39,                             !- Outside Boundary Condition Object
  NoSun,                                  !- Sun Exposure
  NoWind,                                 !- Wind Exposure
  ,                                       !- View Factor to Ground
  ,                                       !- Number of Vertices
  50, 20, 7,                              !- X,Y,Z Vertex 1 {m}
  25, 20, 7,                              !- X,Y,Z Vertex 2 {m}
  25, 20, 3.5,                            !- X,Y,Z Vertex 3 {m}
  50, 20, 3.5;                            !- X,Y,Z Vertex 4 {m}

BuildingSurface:Detailed,
  Surface 48,                             !- Name
  Ceiling,                                !- Surface Type
  Laje concreto,                          !- Construction Name
  Zona P2_1_1,                            !- Zone Name
  P2_1_1,                                 !- Space Name
  Surface,                                !- Outside Boundary Condition
  Surface 67,                             !- Outside Boundary Condition Object
  NoSun,                                  !- Sun Exposure
  NoWind,                                 !- Wind Exposure
  ,                                       !- View Factor to Ground
  ,                                       !- Number of Vertices
  50, 20, 7,                              !- X,Y,Z Vertex 1 {m}
  50, 40, 7,                              !- X,Y,Z Vertex 2 {m}
  25, 40, 7,                              !- X,Y,Z Vertex 3 {m}
  25, 20, 7;                              !- X,Y,Z Vertex 4 {m}

Lights,
  Lights 8,                               !- Name
  P2_1_1,                                 !- Zone or ZoneList or Space or SpaceList Name
  Iluminacao,                             !- Schedule Name
  Watts/Area,                             !- Design Level Calculation Method
  ,                                       !- Lighting Level {W}
  8,                                      !- Watts per Floor Area {W/m2}
  ,                                       !- Watts per Person {W/person}
  ,                                       !- Return Air Fraction
  ,                                       !- Fraction Radiant
  ,                                       !- Fraction Visible
  1,                                      !- Fraction Replaceable
  General;                                !- End-Use Subcategory

People,
  People 8,                               !- Name
  P2_1_1,                                 !- Zone or ZoneList or Space or SpaceList Name
  Ocupacao,                               !- Number of People Schedule Name
  People/Area,                            !- Number of People Calculation Method
  ,                                       !- Number of People
  0.08,                                   !- People per Floor Area {person/m2}
  ,                                       !- Floor Area per Person {m2/person}
  0.3,                                    !- Fraction Radiant
  ,                                       !- Sensible Heat Fraction
  Atividade sedentaria 120 W pessoa,      !- Activity Level Schedule Name
  ,                                       !- Carbon Dioxide Generation Rate {m3/s-W}
  ,                                       !- Enable ASHRAE 55 Comfort Warnings
  ,                                       !- Mean Radiant Temperature Calculation Type
  ,                                       !- Surface Name/Angle Factor List Name
  ,                                       !- Work Efficiency Schedule Name
  ClothingInsulationSchedule;             !- Clothing Insulation Calculation Method

ElectricEquipment,
  Electric Equipment 8,                   !- Name
  P2_1_1,                                 !- Zone or ZoneList or Space or SpaceList Name
  Computadores e demais equipamentos,     !- Schedule Name
  Watts/Area,                             !- Design Level Calculation Method
  ,                                       !- Design Level {W}
  12,                                     !- Watts per Floor Area {W/m2}
  ,                                       !- Watts per Person {W/person}
  ,                                       !- Fraction Latent
  ,                                       !- Fraction Radiant
  ,                                       !- Fraction Lost
  Computadores e cargas de escritorio;    !- End-Use Subcategory

ZoneInfiltration:DesignFlowRate,
  Space Infiltration Design Flow Rate 8,  !- Name
  P2_1_1,                                 !- Zone or ZoneList or Space or SpaceList Name
  Always On Discrete,                     !- Schedule Name
  AirChanges/Hour,                        !- Design Flow Rate Calculation Method
  ,                                       !- Design Flow Rate {m3/s}
  ,                                       !- Flow Rate per Floor Area {m3/s-m2}
  ,                                       !- Flow Rate per Exterior Surface Area {m3/s-m2}
  0.15,                                   !- Air Changes per Hour {1/hr}
  ,                                       !- Constant Term Coefficient
  ,                                       !- Temperature Term Coefficient
  ,                                       !- Velocity Term Coefficient
  ,                                       !- Velocity Squared Term Coefficient
  Outdoor;                                !- Density Basis

ZoneControl:Thermostat,
  Zona P2_1_1 Thermostat,                 !- Name
  Zona P2_1_1,                            !- Zone or ZoneList Name
  Zona P2_1_1 Thermostat Schedule,        !- Control Type Schedule Name
  ThermostatSetpoint:DualSetpoint,        !- Control 1 Object Type
  Thermostat Setpoint Dual Setpoint 8,    !- Control 1 Name
  ,                                       !- Control 2 Object Type
  ,                                       !- Control 2 Name
  ,                                       !- Control 3 Object Type
  ,                                       !- Control 3 Name
  ,                                       !- Control 4 Object Type
  ,                                       !- Control 4 Name
  0;                                      !- Temperature Difference Between Cutout And Setpoint {deltaC}

Schedule:Compact,
  Zona P2_1_1 Thermostat Schedule,        !- Name
  Zona P2_1_1 Thermostat Schedule Type Limits, !- Schedule Type Limits Name
  Through: 12/31,                         !- Field 1
  For: AllDays,                           !- Field 2
  Until: 24:00,                           !- Field 3
  4;                                      !- Field 4

ScheduleTypeLimits,
  Zona P2_1_1 Thermostat Schedule Type Limits, !- Name
  0,                                      !- Lower Limit Value {BasedOnField A3}
  4,                                      !- Upper Limit Value {BasedOnField A3}
  DISCRETE;                               !- Numeric Type

ThermostatSetpoint:DualSetpoint,
  Thermostat Setpoint Dual Setpoint 8,    !- Name
  Aquecimento 20C,                        !- Heating Setpoint Temperature Schedule Name
  Resfriamento 24C;                       !- Cooling Setpoint Temperature Schedule Name

ZoneHVAC:EquipmentConnections,
  Zona P2_1_1,                            !- Zone Name
  Zona P2_1_1 Equipment List,             !- Zone Conditioning Equipment List Name
  Zona P2_1_1 Inlet Node List,            !- Zone Air Inlet Node or NodeList Name
  Zona P2_1_1 Exhaust Node List,          !- Zone Air Exhaust Node or NodeList Name
  Node 22;                                !- Zone Air Node Name

NodeList,
  Zona P2_1_1 Inlet Node List,            !- Name
  Node 24;                                !- Node Name 1

NodeList,
  Zona P2_1_1 Exhaust Node List,          !- Name
  Node 23;                                !- Node Name 1

ZoneHVAC:PackagedTerminalAirConditioner,
  Ar condicionado P2_1_1,                 !- Name
  HVAC 07-22,                             !- Availability Schedule Name
  Node 23,                                !- Air Inlet Node Name
  Node 24,                                !- Air Outlet Node Name
  OutdoorAir:Mixer,                       !- Outdoor Air Mixer Object Type
  Ar condicionado P2_1_1 OA Mixer,        !- Outdoor Air Mixer Name
  Autosize,                               !- Cooling Supply Air Flow Rate {m3/s}
  Autosize,                               !- Heating Supply Air Flow Rate {m3/s}
  Autosize,                               !- No Load Supply Air Flow Rate {m3/s}
  Yes,                                    !- No Load Supply Air Flow Rate Control Set To Low Speed
  0.45,                                   !- Cooling Outdoor Air Flow Rate {m3/s}
  0.45,                                   !- Heating Outdoor Air Flow Rate {m3/s}
  0.45,                                   !- No Load Outdoor Air Flow Rate {m3/s}
  Fan:ConstantVolume,                     !- Supply Air Fan Object Type
  Fan Constant Volume 8,                  !- Supply Air Fan Name
  Coil:Heating:Electric,                  !- Heating Coil Object Type
  Coil Heating Electric 8,                !- Heating Coil Name
  Coil:Cooling:DX:SingleSpeed,            !- Cooling Coil Object Type
  Coil Cooling DX Single Speed 8,         !- Cooling Coil Name
  DrawThrough,                            !- Fan Placement
  Always On Discrete;                     !- Supply Air Fan Operating Mode Schedule Name

OutdoorAir:Mixer,
  Ar condicionado P2_1_1 OA Mixer,        !- Name
  Ar condicionado P2_1_1 Mixed Air Node,  !- Mixed Air Node Name
  Ar condicionado P2_1_1 OA Node,         !- Outdoor Air Stream Node Name
  Ar condicionado P2_1_1 Relief Air Node, !- Relief Air Stream Node Name
  Node 23;                                !- Return Air Stream Node Name

OutdoorAir:NodeList,
  Ar condicionado P2_1_1 OA Node;         !- Node or NodeList Name 1

Fan:ConstantVolume,
  Fan Constant Volume 8,                  !- Name
  Always On Discrete,                     !- Availability Schedule Name
  0.6,                                    !- Fan Total Efficiency
  350,                                    !- Pressure Rise {Pa}
  AutoSize,                               !- Maximum Flow Rate {m3/s}
  0.9,                                    !- Motor Efficiency
  1,                                      !- Motor In Airstream Fraction
  Ar condicionado P2_1_1 Heating Coil Outlet Node, !- Air Inlet Node Name
  Node 24,                                !- Air Outlet Node Name
  ;                                       !- End-Use Subcategory

Coil:Heating:Electric,
  Coil Heating Electric 8,                !- Name
  Always On Discrete,                     !- Availability Schedule Name
  1,                                      !- Efficiency
  Autosize,                               !- Nominal Capacity {W}
  Ar condicionado P2_1_1 Cooling Coil Outlet Node, !- Air Inlet Node Name
  Ar condicionado P2_1_1 Heating Coil Outlet Node; !- Air Outlet Node Name

Curve:Biquadratic,
  Curve Biquadratic 15,                   !- Name
  0.942587793,                            !- Coefficient1 Constant
  0.009543347,                            !- Coefficient2 x
  0.00068377,                             !- Coefficient3 x**2
  -0.011042676,                           !- Coefficient4 y
  5.249e-06,                              !- Coefficient5 y**2
  -9.72e-06,                              !- Coefficient6 x*y
  17,                                     !- Minimum Value of x {BasedOnField A2}
  22,                                     !- Maximum Value of x {BasedOnField A2}
  13,                                     !- Minimum Value of y {BasedOnField A3}
  46;                                     !- Maximum Value of y {BasedOnField A3}

Curve:Quadratic,
  Curve Quadratic 22,                     !- Name
  0.8,                                    !- Coefficient1 Constant
  0.2,                                    !- Coefficient2 x
  0,                                      !- Coefficient3 x**2
  0.5,                                    !- Minimum Value of x {BasedOnField A2}
  1.5;                                    !- Maximum Value of x {BasedOnField A2}

Curve:Biquadratic,
  Curve Biquadratic 16,                   !- Name
  0.342414409,                            !- Coefficient1 Constant
  0.034885008,                            !- Coefficient2 x
  -0.0006237,                             !- Coefficient3 x**2
  0.004977216,                            !- Coefficient4 y
  0.000437951,                            !- Coefficient5 y**2
  -0.000728028,                           !- Coefficient6 x*y
  17,                                     !- Minimum Value of x {BasedOnField A2}
  22,                                     !- Maximum Value of x {BasedOnField A2}
  13,                                     !- Minimum Value of y {BasedOnField A3}
  46;                                     !- Maximum Value of y {BasedOnField A3}

Curve:Quadratic,
  Curve Quadratic 23,                     !- Name
  1.1552,                                 !- Coefficient1 Constant
  -0.1808,                                !- Coefficient2 x
  0.0256,                                 !- Coefficient3 x**2
  0.5,                                    !- Minimum Value of x {BasedOnField A2}
  1.5;                                    !- Maximum Value of x {BasedOnField A2}

Curve:Quadratic,
  Curve Quadratic 24,                     !- Name
  0.85,                                   !- Coefficient1 Constant
  0.15,                                   !- Coefficient2 x
  0,                                      !- Coefficient3 x**2
  0,                                      !- Minimum Value of x {BasedOnField A2}
  1;                                      !- Maximum Value of x {BasedOnField A2}

Coil:Cooling:DX:SingleSpeed,
  Coil Cooling DX Single Speed 8,         !- Name
  Always On Discrete,                     !- Availability Schedule Name
  Autosize,                               !- Gross Rated Total Cooling Capacity {W}
  Autosize,                               !- Gross Rated Sensible Heat Ratio
  3.2,                                    !- Gross Rated Cooling COP {W/W}
  Autosize,                               !- Rated Air Flow Rate {m3/s}
  773.3,                                  !- Rated Evaporator Fan Power Per Volume Flow Rate 2017 {W/(m3/s)}
  934.4,                                  !- Rated Evaporator Fan Power Per Volume Flow Rate 2023 {W/(m3/s)}
  Ar condicionado P2_1_1 Mixed Air Node,  !- Air Inlet Node Name
  Ar condicionado P2_1_1 Cooling Coil Outlet Node, !- Air Outlet Node Name
  Curve Biquadratic 15,                   !- Total Cooling Capacity Function of Temperature Curve Name
  Curve Quadratic 22,                     !- Total Cooling Capacity Function of Flow Fraction Curve Name
  Curve Biquadratic 16,                   !- Energy Input Ratio Function of Temperature Curve Name
  Curve Quadratic 23,                     !- Energy Input Ratio Function of Flow Fraction Curve Name
  Curve Quadratic 24,                     !- Part Load Fraction Correlation Curve Name
  -25,                                    !- Minimum Outdoor Dry-Bulb Temperature for Compressor Operation {C}
  0,                                      !- Nominal Time for Condensate Removal to Begin {s}
  0,                                      !- Ratio of Initial Moisture Evaporation Rate and Steady State Latent Capacity {dimensionless}
  0,                                      !- Maximum Cycling Rate {cycles/hr}
  0,                                      !- Latent Capacity Time Constant {s}
  ,                                       !- Condenser Air Inlet Node Name
  AirCooled,                              !- Condenser Type
  0.9,                                    !- Evaporative Condenser Effectiveness {dimensionless}
  Autosize,                               !- Evaporative Condenser Air Flow Rate {m3/s}
  Autosize,                               !- Evaporative Condenser Pump Rated Power Consumption {W}
  0,                                      !- Crankcase Heater Capacity {W}
  ,                                       !- Crankcase Heater Capacity Function of Temperature Curve Name
  10,                                     !- Maximum Outdoor Dry-Bulb Temperature for Crankcase Heater Operation {C}
  ,                                       !- Supply Water Storage Tank Name
  ,                                       !- Condensate Collection Water Storage Tank Name
  0,                                      !- Basin Heater Capacity {W/K}
  2;                                      !- Basin Heater Setpoint Temperature {C}

ZoneHVAC:EquipmentList,
  Zona P2_1_1 Equipment List,             !- Name
  SequentialLoad,                         !- Load Distribution Scheme
  ZoneHVAC:PackagedTerminalAirConditioner, !- Zone Equipment Object Type 1
  Ar condicionado P2_1_1,                 !- Zone Equipment Name 1
  1,                                      !- Zone Equipment Cooling Sequence 1
  1,                                      !- Zone Equipment Heating or No-Load Sequence 1
  ,                                       !- Zone Equipment Sequential Cooling Fraction Schedule Name 1
  ;                                       !- Zone Equipment Sequential Heating Fraction Schedule Name 1

Sizing:Zone,
  Zona P2_1_1,                            !- Zone or ZoneList Name
  SupplyAirTemperature,                   !- Zone Cooling Design Supply Air Temperature Input Method
  14,                                     !- Zone Cooling Design Supply Air Temperature {C}
  11.11,                                  !- Zone Cooling Design Supply Air Temperature Difference {deltaC}
  SupplyAirTemperature,                   !- Zone Heating Design Supply Air Temperature Input Method
  40,                                     !- Zone Heating Design Supply Air Temperature {C}
  11.11,                                  !- Zone Heating Design Supply Air Temperature Difference {deltaC}
  0.0085,                                 !- Zone Cooling Design Supply Air Humidity Ratio {kgWater/kgDryAir}
  0.008,                                  !- Zone Heating Design Supply Air Humidity Ratio {kgWater/kgDryAir}
  Design Specification Outdoor Air 8,     !- Design Specification Outdoor Air Object Name
  ,                                       !- Zone Heating Sizing Factor
  ,                                       !- Zone Cooling Sizing Factor
  DesignDay,                              !- Cooling Design Air Flow Method
  0,                                      !- Cooling Design Air Flow Rate {m3/s}
  0.000762,                               !- Cooling Minimum Air Flow per Zone Floor Area {m3/s-m2}
  0,                                      !- Cooling Minimum Air Flow {m3/s}
  0,                                      !- Cooling Minimum Air Flow Fraction
  DesignDay,                              !- Heating Design Air Flow Method
  0,                                      !- Heating Design Air Flow Rate {m3/s}
  0.002032,                               !- Heating Maximum Air Flow per Zone Floor Area {m3/s-m2}
  0.1415762,                              !- Heating Maximum Air Flow {m3/s}
  0.3,                                    !- Heating Maximum Air Flow Fraction
  ,                                       !- Design Specification Zone Air Distribution Object Name
  No,                                     !- Account for Dedicated Outdoor Air System
  ,                                       !- Dedicated Outdoor Air System Control Strategy
  ,                                       !- Dedicated Outdoor Air Low Setpoint Temperature for Design {C}
  ,                                       !- Dedicated Outdoor Air High Setpoint Temperature for Design {C}
  Sensible Load Only No Latent Load,      !- Zone Load Sizing Method
  HumidityRatioDifference,                !- Zone Latent Cooling Design Supply Air Humidity Ratio Input Method
  ,                                       !- Zone Dehumidification Design Supply Air Humidity Ratio {kgWater/kgDryAir}
  0.005,                                  !- Zone Cooling Design Supply Air Humidity Ratio Difference {kgWater/kgDryAir}
  HumidityRatioDifference,                !- Zone Latent Heating Design Supply Air Humidity Ratio Input Method
  ,                                       !- Zone Humidification Design Supply Air Humidity Ratio {kgWater/kgDryAir}
  0.005,                                  !- Zone Humidification Design Supply Air Humidity Ratio Difference {kgWater/kgDryAir}
  ,                                       !- Zone Humidistat Dehumidification Set Point Schedule Name
  ,                                       !- Zone Humidistat Humidification Set Point Schedule Name
  Coincident,                             !- Type of Space Sum to Use
  None,                                   !- Heating Coil Sizing Method
  1;                                      !- Maximum Heating Capacity To Cooling Load Sizing Ratio {W/W}

DesignSpecification:OutdoorAir,
  Design Specification Outdoor Air 8,     !- Name
  Sum,                                    !- Outdoor Air Method
  0.0075,                                 !- Outdoor Air Flow per Person {m3/s-person}
  0.0003,                                 !- Outdoor Air Flow per Zone Floor Area {m3/s-m2}
  0,                                      !- Outdoor Air Flow per Zone {m3/s}
  0;                                      !- Outdoor Air Flow Air Changes per Hour {1/hr}

Zone,
  Zona P3_0_0,                            !- Name
  ,                                       !- Direction of Relative North {deg}
  0,                                      !- X Origin {m}
  0,                                      !- Y Origin {m}
  0,                                      !- Z Origin {m}
  ,                                       !- Type
  1,                                      !- Multiplier
  ,                                       !- Ceiling Height {m}
  ,                                       !- Volume {m3}
  ,                                       !- Floor Area {m2}
  ,                                       !- Zone Inside Convection Algorithm
  ,                                       !- Zone Outside Convection Algorithm
  Yes;                                    !- Part of Total Floor Area

Space,
  P3_0_0,                                 !- Name
  Zona P3_0_0,                            !- Zone Name
  ,                                       !- Ceiling Height {m}
  ,                                       !- Volume {m3}
  ;                                       !- Floor Area {m2}

BuildingSurface:Detailed,
  Surface 49,                             !- Name
  Floor,                                  !- Surface Type
  Laje concreto,                          !- Construction Name
  Zona P3_0_0,                            !- Zone Name
  P3_0_0,                                 !- Space Name
  Surface,                                !- Outside Boundary Condition
  Surface 30,                             !- Outside Boundary Condition Object
  NoSun,                                  !- Sun Exposure
  NoWind,                                 !- Wind Exposure
  ,                                       !- View Factor to Ground
  ,                                       !- Number of Vertices
  0, 0, 7,                                !- X,Y,Z Vertex 1 {m}
  0, 20, 7,                               !- X,Y,Z Vertex 2 {m}
  25, 20, 7,                              !- X,Y,Z Vertex 3 {m}
  25, 0, 7;                               !- X,Y,Z Vertex 4 {m}

BuildingSurface:Detailed,
  Surface 50,                             !- Name
  Wall,                                   !- Surface Type
  Alvenaria rebocada,                     !- Construction Name
  Zona P3_0_0,                            !- Zone Name
  P3_0_0,                                 !- Space Name
  Outdoors,                               !- Outside Boundary Condition
  ,                                       !- Outside Boundary Condition Object
  SunExposed,                             !- Sun Exposure
  WindExposed,                            !- Wind Exposure
  ,                                       !- View Factor to Ground
  ,                                       !- Number of Vertices
  0, 0, 10.5,                             !- X,Y,Z Vertex 1 {m}
  0, 20, 10.5,                            !- X,Y,Z Vertex 2 {m}
  0, 20, 7,                               !- X,Y,Z Vertex 3 {m}
  0, 0, 7;                                !- X,Y,Z Vertex 4 {m}

FenestrationSurface:Detailed,
  Sub Surface 6,                          !- Name
  Window,                                 !- Surface Type
  Vidro U3 SHGC0.4,                       !- Construction Name
  Surface 50,                             !- Building Surface Name
  ,                                       !- Outside Boundary Condition Object
  ,                                       !- View Factor to Ground
  ,                                       !- Frame and Divider Name
  ,                                       !- Multiplier
  ,                                       !- Number of Vertices
  0, 19.9746, 8.81467379143023,           !- X,Y,Z Vertex 1 {m}
  0, 19.9746, 7.762,                      !- X,Y,Z Vertex 2 {m}
  0, 0.0253999999999976, 7.762,           !- X,Y,Z Vertex 3 {m}
  0, 0.0253999999999976, 8.81467379143023; !- X,Y,Z Vertex 4 {m}

BuildingSurface:Detailed,
  Surface 51,                             !- Name
  Wall,                                   !- Surface Type
  Alvenaria rebocada,                     !- Construction Name
  Zona P3_0_0,                            !- Zone Name
  P3_0_0,                                 !- Space Name
  Surface,                                !- Outside Boundary Condition
  Surface 59,                             !- Outside Boundary Condition Object
  NoSun,                                  !- Sun Exposure
  NoWind,                                 !- Wind Exposure
  ,                                       !- View Factor to Ground
  ,                                       !- Number of Vertices
  0, 20, 10.5,                            !- X,Y,Z Vertex 1 {m}
  25, 20, 10.5,                           !- X,Y,Z Vertex 2 {m}
  25, 20, 7,                              !- X,Y,Z Vertex 3 {m}
  0, 20, 7;                               !- X,Y,Z Vertex 4 {m}

BuildingSurface:Detailed,
  Surface 52,                             !- Name
  Wall,                                   !- Surface Type
  Alvenaria rebocada,                     !- Construction Name
  Zona P3_0_0,                            !- Zone Name
  P3_0_0,                                 !- Space Name
  Surface,                                !- Outside Boundary Condition
  Surface 62,                             !- Outside Boundary Condition Object
  NoSun,                                  !- Sun Exposure
  NoWind,                                 !- Wind Exposure
  ,                                       !- View Factor to Ground
  ,                                       !- Number of Vertices
  25, 20, 10.5,                           !- X,Y,Z Vertex 1 {m}
  25, 0, 10.5,                            !- X,Y,Z Vertex 2 {m}
  25, 0, 7,                               !- X,Y,Z Vertex 3 {m}
  25, 20, 7;                              !- X,Y,Z Vertex 4 {m}

BuildingSurface:Detailed,
  Surface 53,                             !- Name
  Wall,                                   !- Surface Type
  Alvenaria rebocada,                     !- Construction Name
  Zona P3_0_0,                            !- Zone Name
  P3_0_0,                                 !- Space Name
  Outdoors,                               !- Outside Boundary Condition
  ,                                       !- Outside Boundary Condition Object
  SunExposed,                             !- Sun Exposure
  WindExposed,                            !- Wind Exposure
  ,                                       !- View Factor to Ground
  ,                                       !- Number of Vertices
  25, 0, 10.5,                            !- X,Y,Z Vertex 1 {m}
  0, 0, 10.5,                             !- X,Y,Z Vertex 2 {m}
  0, 0, 7,                                !- X,Y,Z Vertex 3 {m}
  25, 0, 7;                               !- X,Y,Z Vertex 4 {m}

FenestrationSurface:Detailed,
  Sub Surface 22,                         !- Name
  Window,                                 !- Surface Type
  Vidro U3 SHGC0.4,                       !- Construction Name
  Surface 53,                             !- Building Surface Name
  ,                                       !- Outside Boundary Condition Object
  ,                                       !- View Factor to Ground
  ,                                       !- Frame and Divider Name
  ,                                       !- Multiplier
  ,                                       !- Number of Vertices
  0.0254, 0, 8.81413794430282,            !- X,Y,Z Vertex 1 {m}
  0.0254, 0, 7.762,                       !- X,Y,Z Vertex 2 {m}
  24.9746, 0, 7.762,                      !- X,Y,Z Vertex 3 {m}
  24.9746, 0, 8.81413794430282;           !- X,Y,Z Vertex 4 {m}

BuildingSurface:Detailed,
  Surface 54,                             !- Name
  Ceiling,                                !- Surface Type
  Laje concreto,                          !- Construction Name
  Zona P3_0_0,                            !- Zone Name
  P3_0_0,                                 !- Space Name
  Surface,                                !- Outside Boundary Condition
  Surface 73,                             !- Outside Boundary Condition Object
  NoSun,                                  !- Sun Exposure
  NoWind,                                 !- Wind Exposure
  ,                                       !- View Factor to Ground
  ,                                       !- Number of Vertices
  25, 0, 10.5,                            !- X,Y,Z Vertex 1 {m}
  25, 20, 10.5,                           !- X,Y,Z Vertex 2 {m}
  0, 20, 10.5,                            !- X,Y,Z Vertex 3 {m}
  0, 0, 10.5;                             !- X,Y,Z Vertex 4 {m}

Lights,
  Lights 9,                               !- Name
  P3_0_0,                                 !- Zone or ZoneList or Space or SpaceList Name
  Iluminacao,                             !- Schedule Name
  Watts/Area,                             !- Design Level Calculation Method
  ,                                       !- Lighting Level {W}
  8,                                      !- Watts per Floor Area {W/m2}
  ,                                       !- Watts per Person {W/person}
  ,                                       !- Return Air Fraction
  ,                                       !- Fraction Radiant
  ,                                       !- Fraction Visible
  1,                                      !- Fraction Replaceable
  General;                                !- End-Use Subcategory

People,
  People 9,                               !- Name
  P3_0_0,                                 !- Zone or ZoneList or Space or SpaceList Name
  Ocupacao,                               !- Number of People Schedule Name
  People/Area,                            !- Number of People Calculation Method
  ,                                       !- Number of People
  0.08,                                   !- People per Floor Area {person/m2}
  ,                                       !- Floor Area per Person {m2/person}
  0.3,                                    !- Fraction Radiant
  ,                                       !- Sensible Heat Fraction
  Atividade sedentaria 120 W pessoa,      !- Activity Level Schedule Name
  ,                                       !- Carbon Dioxide Generation Rate {m3/s-W}
  ,                                       !- Enable ASHRAE 55 Comfort Warnings
  ,                                       !- Mean Radiant Temperature Calculation Type
  ,                                       !- Surface Name/Angle Factor List Name
  ,                                       !- Work Efficiency Schedule Name
  ClothingInsulationSchedule;             !- Clothing Insulation Calculation Method

ElectricEquipment,
  Electric Equipment 9,                   !- Name
  P3_0_0,                                 !- Zone or ZoneList or Space or SpaceList Name
  Computadores e demais equipamentos,     !- Schedule Name
  Watts/Area,                             !- Design Level Calculation Method
  ,                                       !- Design Level {W}
  12,                                     !- Watts per Floor Area {W/m2}
  ,                                       !- Watts per Person {W/person}
  ,                                       !- Fraction Latent
  ,                                       !- Fraction Radiant
  ,                                       !- Fraction Lost
  Computadores e cargas de escritorio;    !- End-Use Subcategory

ZoneInfiltration:DesignFlowRate,
  Space Infiltration Design Flow Rate 9,  !- Name
  P3_0_0,                                 !- Zone or ZoneList or Space or SpaceList Name
  Always On Discrete,                     !- Schedule Name
  AirChanges/Hour,                        !- Design Flow Rate Calculation Method
  ,                                       !- Design Flow Rate {m3/s}
  ,                                       !- Flow Rate per Floor Area {m3/s-m2}
  ,                                       !- Flow Rate per Exterior Surface Area {m3/s-m2}
  0.15,                                   !- Air Changes per Hour {1/hr}
  ,                                       !- Constant Term Coefficient
  ,                                       !- Temperature Term Coefficient
  ,                                       !- Velocity Term Coefficient
  ,                                       !- Velocity Squared Term Coefficient
  Outdoor;                                !- Density Basis

ZoneControl:Thermostat,
  Zona P3_0_0 Thermostat,                 !- Name
  Zona P3_0_0,                            !- Zone or ZoneList Name
  Zona P3_0_0 Thermostat Schedule,        !- Control Type Schedule Name
  ThermostatSetpoint:DualSetpoint,        !- Control 1 Object Type
  Thermostat Setpoint Dual Setpoint 9,    !- Control 1 Name
  ,                                       !- Control 2 Object Type
  ,                                       !- Control 2 Name
  ,                                       !- Control 3 Object Type
  ,                                       !- Control 3 Name
  ,                                       !- Control 4 Object Type
  ,                                       !- Control 4 Name
  0;                                      !- Temperature Difference Between Cutout And Setpoint {deltaC}

Schedule:Compact,
  Zona P3_0_0 Thermostat Schedule,        !- Name
  Zona P3_0_0 Thermostat Schedule Type Limits, !- Schedule Type Limits Name
  Through: 12/31,                         !- Field 1
  For: AllDays,                           !- Field 2
  Until: 24:00,                           !- Field 3
  4;                                      !- Field 4

ScheduleTypeLimits,
  Zona P3_0_0 Thermostat Schedule Type Limits, !- Name
  0,                                      !- Lower Limit Value {BasedOnField A3}
  4,                                      !- Upper Limit Value {BasedOnField A3}
  DISCRETE;                               !- Numeric Type

ThermostatSetpoint:DualSetpoint,
  Thermostat Setpoint Dual Setpoint 9,    !- Name
  Aquecimento 20C,                        !- Heating Setpoint Temperature Schedule Name
  Resfriamento 24C;                       !- Cooling Setpoint Temperature Schedule Name

ZoneHVAC:EquipmentConnections,
  Zona P3_0_0,                            !- Zone Name
  Zona P3_0_0 Equipment List,             !- Zone Conditioning Equipment List Name
  Zona P3_0_0 Inlet Node List,            !- Zone Air Inlet Node or NodeList Name
  Zona P3_0_0 Exhaust Node List,          !- Zone Air Exhaust Node or NodeList Name
  Node 25;                                !- Zone Air Node Name

NodeList,
  Zona P3_0_0 Inlet Node List,            !- Name
  Node 27;                                !- Node Name 1

NodeList,
  Zona P3_0_0 Exhaust Node List,          !- Name
  Node 26;                                !- Node Name 1

ZoneHVAC:PackagedTerminalAirConditioner,
  Ar condicionado P3_0_0,                 !- Name
  HVAC 07-22,                             !- Availability Schedule Name
  Node 26,                                !- Air Inlet Node Name
  Node 27,                                !- Air Outlet Node Name
  OutdoorAir:Mixer,                       !- Outdoor Air Mixer Object Type
  Ar condicionado P3_0_0 OA Mixer,        !- Outdoor Air Mixer Name
  Autosize,                               !- Cooling Supply Air Flow Rate {m3/s}
  Autosize,                               !- Heating Supply Air Flow Rate {m3/s}
  Autosize,                               !- No Load Supply Air Flow Rate {m3/s}
  Yes,                                    !- No Load Supply Air Flow Rate Control Set To Low Speed
  0.45,                                   !- Cooling Outdoor Air Flow Rate {m3/s}
  0.45,                                   !- Heating Outdoor Air Flow Rate {m3/s}
  0.45,                                   !- No Load Outdoor Air Flow Rate {m3/s}
  Fan:ConstantVolume,                     !- Supply Air Fan Object Type
  Fan Constant Volume 9,                  !- Supply Air Fan Name
  Coil:Heating:Electric,                  !- Heating Coil Object Type
  Coil Heating Electric 9,                !- Heating Coil Name
  Coil:Cooling:DX:SingleSpeed,            !- Cooling Coil Object Type
  Coil Cooling DX Single Speed 9,         !- Cooling Coil Name
  DrawThrough,                            !- Fan Placement
  Always On Discrete;                     !- Supply Air Fan Operating Mode Schedule Name

OutdoorAir:Mixer,
  Ar condicionado P3_0_0 OA Mixer,        !- Name
  Ar condicionado P3_0_0 Mixed Air Node,  !- Mixed Air Node Name
  Ar condicionado P3_0_0 OA Node,         !- Outdoor Air Stream Node Name
  Ar condicionado P3_0_0 Relief Air Node, !- Relief Air Stream Node Name
  Node 26;                                !- Return Air Stream Node Name

OutdoorAir:NodeList,
  Ar condicionado P3_0_0 OA Node;         !- Node or NodeList Name 1

Fan:ConstantVolume,
  Fan Constant Volume 9,                  !- Name
  Always On Discrete,                     !- Availability Schedule Name
  0.6,                                    !- Fan Total Efficiency
  350,                                    !- Pressure Rise {Pa}
  AutoSize,                               !- Maximum Flow Rate {m3/s}
  0.9,                                    !- Motor Efficiency
  1,                                      !- Motor In Airstream Fraction
  Ar condicionado P3_0_0 Heating Coil Outlet Node, !- Air Inlet Node Name
  Node 27,                                !- Air Outlet Node Name
  ;                                       !- End-Use Subcategory

Coil:Heating:Electric,
  Coil Heating Electric 9,                !- Name
  Always On Discrete,                     !- Availability Schedule Name
  1,                                      !- Efficiency
  Autosize,                               !- Nominal Capacity {W}
  Ar condicionado P3_0_0 Cooling Coil Outlet Node, !- Air Inlet Node Name
  Ar condicionado P3_0_0 Heating Coil Outlet Node; !- Air Outlet Node Name

Curve:Biquadratic,
  Curve Biquadratic 17,                   !- Name
  0.942587793,                            !- Coefficient1 Constant
  0.009543347,                            !- Coefficient2 x
  0.00068377,                             !- Coefficient3 x**2
  -0.011042676,                           !- Coefficient4 y
  5.249e-06,                              !- Coefficient5 y**2
  -9.72e-06,                              !- Coefficient6 x*y
  17,                                     !- Minimum Value of x {BasedOnField A2}
  22,                                     !- Maximum Value of x {BasedOnField A2}
  13,                                     !- Minimum Value of y {BasedOnField A3}
  46;                                     !- Maximum Value of y {BasedOnField A3}

Curve:Quadratic,
  Curve Quadratic 25,                     !- Name
  0.8,                                    !- Coefficient1 Constant
  0.2,                                    !- Coefficient2 x
  0,                                      !- Coefficient3 x**2
  0.5,                                    !- Minimum Value of x {BasedOnField A2}
  1.5;                                    !- Maximum Value of x {BasedOnField A2}

Curve:Biquadratic,
  Curve Biquadratic 18,                   !- Name
  0.342414409,                            !- Coefficient1 Constant
  0.034885008,                            !- Coefficient2 x
  -0.0006237,                             !- Coefficient3 x**2
  0.004977216,                            !- Coefficient4 y
  0.000437951,                            !- Coefficient5 y**2
  -0.000728028,                           !- Coefficient6 x*y
  17,                                     !- Minimum Value of x {BasedOnField A2}
  22,                                     !- Maximum Value of x {BasedOnField A2}
  13,                                     !- Minimum Value of y {BasedOnField A3}
  46;                                     !- Maximum Value of y {BasedOnField A3}

Curve:Quadratic,
  Curve Quadratic 26,                     !- Name
  1.1552,                                 !- Coefficient1 Constant
  -0.1808,                                !- Coefficient2 x
  0.0256,                                 !- Coefficient3 x**2
  0.5,                                    !- Minimum Value of x {BasedOnField A2}
  1.5;                                    !- Maximum Value of x {BasedOnField A2}

Curve:Quadratic,
  Curve Quadratic 27,                     !- Name
  0.85,                                   !- Coefficient1 Constant
  0.15,                                   !- Coefficient2 x
  0,                                      !- Coefficient3 x**2
  0,                                      !- Minimum Value of x {BasedOnField A2}
  1;                                      !- Maximum Value of x {BasedOnField A2}

Coil:Cooling:DX:SingleSpeed,
  Coil Cooling DX Single Speed 9,         !- Name
  Always On Discrete,                     !- Availability Schedule Name
  Autosize,                               !- Gross Rated Total Cooling Capacity {W}
  Autosize,                               !- Gross Rated Sensible Heat Ratio
  3.2,                                    !- Gross Rated Cooling COP {W/W}
  Autosize,                               !- Rated Air Flow Rate {m3/s}
  773.3,                                  !- Rated Evaporator Fan Power Per Volume Flow Rate 2017 {W/(m3/s)}
  934.4,                                  !- Rated Evaporator Fan Power Per Volume Flow Rate 2023 {W/(m3/s)}
  Ar condicionado P3_0_0 Mixed Air Node,  !- Air Inlet Node Name
  Ar condicionado P3_0_0 Cooling Coil Outlet Node, !- Air Outlet Node Name
  Curve Biquadratic 17,                   !- Total Cooling Capacity Function of Temperature Curve Name
  Curve Quadratic 25,                     !- Total Cooling Capacity Function of Flow Fraction Curve Name
  Curve Biquadratic 18,                   !- Energy Input Ratio Function of Temperature Curve Name
  Curve Quadratic 26,                     !- Energy Input Ratio Function of Flow Fraction Curve Name
  Curve Quadratic 27,                     !- Part Load Fraction Correlation Curve Name
  -25,                                    !- Minimum Outdoor Dry-Bulb Temperature for Compressor Operation {C}
  0,                                      !- Nominal Time for Condensate Removal to Begin {s}
  0,                                      !- Ratio of Initial Moisture Evaporation Rate and Steady State Latent Capacity {dimensionless}
  0,                                      !- Maximum Cycling Rate {cycles/hr}
  0,                                      !- Latent Capacity Time Constant {s}
  ,                                       !- Condenser Air Inlet Node Name
  AirCooled,                              !- Condenser Type
  0.9,                                    !- Evaporative Condenser Effectiveness {dimensionless}
  Autosize,                               !- Evaporative Condenser Air Flow Rate {m3/s}
  Autosize,                               !- Evaporative Condenser Pump Rated Power Consumption {W}
  0,                                      !- Crankcase Heater Capacity {W}
  ,                                       !- Crankcase Heater Capacity Function of Temperature Curve Name
  10,                                     !- Maximum Outdoor Dry-Bulb Temperature for Crankcase Heater Operation {C}
  ,                                       !- Supply Water Storage Tank Name
  ,                                       !- Condensate Collection Water Storage Tank Name
  0,                                      !- Basin Heater Capacity {W/K}
  2;                                      !- Basin Heater Setpoint Temperature {C}

ZoneHVAC:EquipmentList,
  Zona P3_0_0 Equipment List,             !- Name
  SequentialLoad,                         !- Load Distribution Scheme
  ZoneHVAC:PackagedTerminalAirConditioner, !- Zone Equipment Object Type 1
  Ar condicionado P3_0_0,                 !- Zone Equipment Name 1
  1,                                      !- Zone Equipment Cooling Sequence 1
  1,                                      !- Zone Equipment Heating or No-Load Sequence 1
  ,                                       !- Zone Equipment Sequential Cooling Fraction Schedule Name 1
  ;                                       !- Zone Equipment Sequential Heating Fraction Schedule Name 1

Sizing:Zone,
  Zona P3_0_0,                            !- Zone or ZoneList Name
  SupplyAirTemperature,                   !- Zone Cooling Design Supply Air Temperature Input Method
  14,                                     !- Zone Cooling Design Supply Air Temperature {C}
  11.11,                                  !- Zone Cooling Design Supply Air Temperature Difference {deltaC}
  SupplyAirTemperature,                   !- Zone Heating Design Supply Air Temperature Input Method
  40,                                     !- Zone Heating Design Supply Air Temperature {C}
  11.11,                                  !- Zone Heating Design Supply Air Temperature Difference {deltaC}
  0.0085,                                 !- Zone Cooling Design Supply Air Humidity Ratio {kgWater/kgDryAir}
  0.008,                                  !- Zone Heating Design Supply Air Humidity Ratio {kgWater/kgDryAir}
  Design Specification Outdoor Air 9,     !- Design Specification Outdoor Air Object Name
  ,                                       !- Zone Heating Sizing Factor
  ,                                       !- Zone Cooling Sizing Factor
  DesignDay,                              !- Cooling Design Air Flow Method
  0,                                      !- Cooling Design Air Flow Rate {m3/s}
  0.000762,                               !- Cooling Minimum Air Flow per Zone Floor Area {m3/s-m2}
  0,                                      !- Cooling Minimum Air Flow {m3/s}
  0,                                      !- Cooling Minimum Air Flow Fraction
  DesignDay,                              !- Heating Design Air Flow Method
  0,                                      !- Heating Design Air Flow Rate {m3/s}
  0.002032,                               !- Heating Maximum Air Flow per Zone Floor Area {m3/s-m2}
  0.1415762,                              !- Heating Maximum Air Flow {m3/s}
  0.3,                                    !- Heating Maximum Air Flow Fraction
  ,                                       !- Design Specification Zone Air Distribution Object Name
  No,                                     !- Account for Dedicated Outdoor Air System
  ,                                       !- Dedicated Outdoor Air System Control Strategy
  ,                                       !- Dedicated Outdoor Air Low Setpoint Temperature for Design {C}
  ,                                       !- Dedicated Outdoor Air High Setpoint Temperature for Design {C}
  Sensible Load Only No Latent Load,      !- Zone Load Sizing Method
  HumidityRatioDifference,                !- Zone Latent Cooling Design Supply Air Humidity Ratio Input Method
  ,                                       !- Zone Dehumidification Design Supply Air Humidity Ratio {kgWater/kgDryAir}
  0.005,                                  !- Zone Cooling Design Supply Air Humidity Ratio Difference {kgWater/kgDryAir}
  HumidityRatioDifference,                !- Zone Latent Heating Design Supply Air Humidity Ratio Input Method
  ,                                       !- Zone Humidification Design Supply Air Humidity Ratio {kgWater/kgDryAir}
  0.005,                                  !- Zone Humidification Design Supply Air Humidity Ratio Difference {kgWater/kgDryAir}
  ,                                       !- Zone Humidistat Dehumidification Set Point Schedule Name
  ,                                       !- Zone Humidistat Humidification Set Point Schedule Name
  Coincident,                             !- Type of Space Sum to Use
  None,                                   !- Heating Coil Sizing Method
  1;                                      !- Maximum Heating Capacity To Cooling Load Sizing Ratio {W/W}

DesignSpecification:OutdoorAir,
  Design Specification Outdoor Air 9,     !- Name
  Sum,                                    !- Outdoor Air Method
  0.0075,                                 !- Outdoor Air Flow per Person {m3/s-person}
  0.0003,                                 !- Outdoor Air Flow per Zone Floor Area {m3/s-m2}
  0,                                      !- Outdoor Air Flow per Zone {m3/s}
  0;                                      !- Outdoor Air Flow Air Changes per Hour {1/hr}

Zone,
  Zona P3_0_1,                            !- Name
  ,                                       !- Direction of Relative North {deg}
  0,                                      !- X Origin {m}
  0,                                      !- Y Origin {m}
  0,                                      !- Z Origin {m}
  ,                                       !- Type
  1,                                      !- Multiplier
  ,                                       !- Ceiling Height {m}
  ,                                       !- Volume {m3}
  ,                                       !- Floor Area {m2}
  ,                                       !- Zone Inside Convection Algorithm
  ,                                       !- Zone Outside Convection Algorithm
  Yes;                                    !- Part of Total Floor Area

Space,
  P3_0_1,                                 !- Name
  Zona P3_0_1,                            !- Zone Name
  ,                                       !- Ceiling Height {m}
  ,                                       !- Volume {m3}
  ;                                       !- Floor Area {m2}

BuildingSurface:Detailed,
  Surface 55,                             !- Name
  Floor,                                  !- Surface Type
  Laje concreto,                          !- Construction Name
  Zona P3_0_1,                            !- Zone Name
  P3_0_1,                                 !- Space Name
  Surface,                                !- Outside Boundary Condition
  Surface 36,                             !- Outside Boundary Condition Object
  NoSun,                                  !- Sun Exposure
  NoWind,                                 !- Wind Exposure
  ,                                       !- View Factor to Ground
  ,                                       !- Number of Vertices
  0, 20, 7,                               !- X,Y,Z Vertex 1 {m}
  0, 40, 7,                               !- X,Y,Z Vertex 2 {m}
  25, 40, 7,                              !- X,Y,Z Vertex 3 {m}
  25, 20, 7;                              !- X,Y,Z Vertex 4 {m}

BuildingSurface:Detailed,
  Surface 56,                             !- Name
  Wall,                                   !- Surface Type
  Alvenaria rebocada,                     !- Construction Name
  Zona P3_0_1,                            !- Zone Name
  P3_0_1,                                 !- Space Name
  Outdoors,                               !- Outside Boundary Condition
  ,                                       !- Outside Boundary Condition Object
  SunExposed,                             !- Sun Exposure
  WindExposed,                            !- Wind Exposure
  ,                                       !- View Factor to Ground
  ,                                       !- Number of Vertices
  0, 20, 10.5,                            !- X,Y,Z Vertex 1 {m}
  0, 40, 10.5,                            !- X,Y,Z Vertex 2 {m}
  0, 40, 7,                               !- X,Y,Z Vertex 3 {m}
  0, 20, 7;                               !- X,Y,Z Vertex 4 {m}

FenestrationSurface:Detailed,
  Sub Surface 9,                          !- Name
  Window,                                 !- Surface Type
  Vidro U3 SHGC0.4,                       !- Construction Name
  Surface 56,                             !- Building Surface Name
  ,                                       !- Outside Boundary Condition Object
  ,                                       !- View Factor to Ground
  ,                                       !- Frame and Divider Name
  ,                                       !- Multiplier
  ,                                       !- Number of Vertices
  0, 39.9746, 8.81467379143023,           !- X,Y,Z Vertex 1 {m}
  0, 39.9746, 7.762,                      !- X,Y,Z Vertex 2 {m}
  0, 20.0254, 7.762,                      !- X,Y,Z Vertex 3 {m}
  0, 20.0254, 8.81467379143023;           !- X,Y,Z Vertex 4 {m}

BuildingSurface:Detailed,
  Surface 57,                             !- Name
  Wall,                                   !- Surface Type
  Alvenaria rebocada,                     !- Construction Name
  Zona P3_0_1,                            !- Zone Name
  P3_0_1,                                 !- Space Name
  Outdoors,                               !- Outside Boundary Condition
  ,                                       !- Outside Boundary Condition Object
  SunExposed,                             !- Sun Exposure
  WindExposed,                            !- Wind Exposure
  ,                                       !- View Factor to Ground
  ,                                       !- Number of Vertices
  0, 40, 10.5,                            !- X,Y,Z Vertex 1 {m}
  25, 40, 10.5,                           !- X,Y,Z Vertex 2 {m}
  25, 40, 7,                              !- X,Y,Z Vertex 3 {m}
  0, 40, 7;                               !- X,Y,Z Vertex 4 {m}

FenestrationSurface:Detailed,
  Sub Surface 24,                         !- Name
  Window,                                 !- Surface Type
  Vidro U3 SHGC0.4,                       !- Construction Name
  Surface 57,                             !- Building Surface Name
  ,                                       !- Outside Boundary Condition Object
  ,                                       !- View Factor to Ground
  ,                                       !- Frame and Divider Name
  ,                                       !- Multiplier
  ,                                       !- Number of Vertices
  24.9746, 40, 8.81413794430282,          !- X,Y,Z Vertex 1 {m}
  24.9746, 40, 7.762,                     !- X,Y,Z Vertex 2 {m}
  0.0253999999999976, 40, 7.762,          !- X,Y,Z Vertex 3 {m}
  0.0253999999999976, 40, 8.81413794430282; !- X,Y,Z Vertex 4 {m}

BuildingSurface:Detailed,
  Surface 58,                             !- Name
  Wall,                                   !- Surface Type
  Alvenaria rebocada,                     !- Construction Name
  Zona P3_0_1,                            !- Zone Name
  P3_0_1,                                 !- Space Name
  Surface,                                !- Outside Boundary Condition
  Surface 68,                             !- Outside Boundary Condition Object
  NoSun,                                  !- Sun Exposure
  NoWind,                                 !- Wind Exposure
  ,                                       !- View Factor to Ground
  ,                                       !- Number of Vertices
  25, 40, 10.5,                           !- X,Y,Z Vertex 1 {m}
  25, 20, 10.5,                           !- X,Y,Z Vertex 2 {m}
  25, 20, 7,                              !- X,Y,Z Vertex 3 {m}
  25, 40, 7;                              !- X,Y,Z Vertex 4 {m}

BuildingSurface:Detailed,
  Surface 59,                             !- Name
  Wall,                                   !- Surface Type
  Alvenaria rebocada,                     !- Construction Name
  Zona P3_0_1,                            !- Zone Name
  P3_0_1,                                 !- Space Name
  Surface,                                !- Outside Boundary Condition
  Surface 51,                             !- Outside Boundary Condition Object
  NoSun,                                  !- Sun Exposure
  NoWind,                                 !- Wind Exposure
  ,                                       !- View Factor to Ground
  ,                                       !- Number of Vertices
  25, 20, 10.5,                           !- X,Y,Z Vertex 1 {m}
  0, 20, 10.5,                            !- X,Y,Z Vertex 2 {m}
  0, 20, 7,                               !- X,Y,Z Vertex 3 {m}
  25, 20, 7;                              !- X,Y,Z Vertex 4 {m}

BuildingSurface:Detailed,
  Surface 60,                             !- Name
  Ceiling,                                !- Surface Type
  Laje concreto,                          !- Construction Name
  Zona P3_0_1,                            !- Zone Name
  P3_0_1,                                 !- Space Name
  Surface,                                !- Outside Boundary Condition
  Surface 79,                             !- Outside Boundary Condition Object
  NoSun,                                  !- Sun Exposure
  NoWind,                                 !- Wind Exposure
  ,                                       !- View Factor to Ground
  ,                                       !- Number of Vertices
  25, 20, 10.5,                           !- X,Y,Z Vertex 1 {m}
  25, 40, 10.5,                           !- X,Y,Z Vertex 2 {m}
  0, 40, 10.5,                            !- X,Y,Z Vertex 3 {m}
  0, 20, 10.5;                            !- X,Y,Z Vertex 4 {m}

Lights,
  Lights 10,                              !- Name
  P3_0_1,                                 !- Zone or ZoneList or Space or SpaceList Name
  Iluminacao,                             !- Schedule Name
  Watts/Area,                             !- Design Level Calculation Method
  ,                                       !- Lighting Level {W}
  8,                                      !- Watts per Floor Area {W/m2}
  ,                                       !- Watts per Person {W/person}
  ,                                       !- Return Air Fraction
  ,                                       !- Fraction Radiant
  ,                                       !- Fraction Visible
  1,                                      !- Fraction Replaceable
  General;                                !- End-Use Subcategory

People,
  People 10,                              !- Name
  P3_0_1,                                 !- Zone or ZoneList or Space or SpaceList Name
  Ocupacao,                               !- Number of People Schedule Name
  People/Area,                            !- Number of People Calculation Method
  ,                                       !- Number of People
  0.08,                                   !- People per Floor Area {person/m2}
  ,                                       !- Floor Area per Person {m2/person}
  0.3,                                    !- Fraction Radiant
  ,                                       !- Sensible Heat Fraction
  Atividade sedentaria 120 W pessoa,      !- Activity Level Schedule Name
  ,                                       !- Carbon Dioxide Generation Rate {m3/s-W}
  ,                                       !- Enable ASHRAE 55 Comfort Warnings
  ,                                       !- Mean Radiant Temperature Calculation Type
  ,                                       !- Surface Name/Angle Factor List Name
  ,                                       !- Work Efficiency Schedule Name
  ClothingInsulationSchedule;             !- Clothing Insulation Calculation Method

ElectricEquipment,
  Electric Equipment 10,                  !- Name
  P3_0_1,                                 !- Zone or ZoneList or Space or SpaceList Name
  Computadores e demais equipamentos,     !- Schedule Name
  Watts/Area,                             !- Design Level Calculation Method
  ,                                       !- Design Level {W}
  12,                                     !- Watts per Floor Area {W/m2}
  ,                                       !- Watts per Person {W/person}
  ,                                       !- Fraction Latent
  ,                                       !- Fraction Radiant
  ,                                       !- Fraction Lost
  Computadores e cargas de escritorio;    !- End-Use Subcategory

ZoneInfiltration:DesignFlowRate,
  Space Infiltration Design Flow Rate 10, !- Name
  P3_0_1,                                 !- Zone or ZoneList or Space or SpaceList Name
  Always On Discrete,                     !- Schedule Name
  AirChanges/Hour,                        !- Design Flow Rate Calculation Method
  ,                                       !- Design Flow Rate {m3/s}
  ,                                       !- Flow Rate per Floor Area {m3/s-m2}
  ,                                       !- Flow Rate per Exterior Surface Area {m3/s-m2}
  0.15,                                   !- Air Changes per Hour {1/hr}
  ,                                       !- Constant Term Coefficient
  ,                                       !- Temperature Term Coefficient
  ,                                       !- Velocity Term Coefficient
  ,                                       !- Velocity Squared Term Coefficient
  Outdoor;                                !- Density Basis

ZoneControl:Thermostat,
  Zona P3_0_1 Thermostat,                 !- Name
  Zona P3_0_1,                            !- Zone or ZoneList Name
  Zona P3_0_1 Thermostat Schedule,        !- Control Type Schedule Name
  ThermostatSetpoint:DualSetpoint,        !- Control 1 Object Type
  Thermostat Setpoint Dual Setpoint 10,   !- Control 1 Name
  ,                                       !- Control 2 Object Type
  ,                                       !- Control 2 Name
  ,                                       !- Control 3 Object Type
  ,                                       !- Control 3 Name
  ,                                       !- Control 4 Object Type
  ,                                       !- Control 4 Name
  0;                                      !- Temperature Difference Between Cutout And Setpoint {deltaC}

Schedule:Compact,
  Zona P3_0_1 Thermostat Schedule,        !- Name
  Zona P3_0_1 Thermostat Schedule Type Limits, !- Schedule Type Limits Name
  Through: 12/31,                         !- Field 1
  For: AllDays,                           !- Field 2
  Until: 24:00,                           !- Field 3
  4;                                      !- Field 4

ScheduleTypeLimits,
  Zona P3_0_1 Thermostat Schedule Type Limits, !- Name
  0,                                      !- Lower Limit Value {BasedOnField A3}
  4,                                      !- Upper Limit Value {BasedOnField A3}
  DISCRETE;                               !- Numeric Type

ThermostatSetpoint:DualSetpoint,
  Thermostat Setpoint Dual Setpoint 10,   !- Name
  Aquecimento 20C,                        !- Heating Setpoint Temperature Schedule Name
  Resfriamento 24C;                       !- Cooling Setpoint Temperature Schedule Name

ZoneHVAC:EquipmentConnections,
  Zona P3_0_1,                            !- Zone Name
  Zona P3_0_1 Equipment List,             !- Zone Conditioning Equipment List Name
  Zona P3_0_1 Inlet Node List,            !- Zone Air Inlet Node or NodeList Name
  Zona P3_0_1 Exhaust Node List,          !- Zone Air Exhaust Node or NodeList Name
  Node 28;                                !- Zone Air Node Name

NodeList,
  Zona P3_0_1 Inlet Node List,            !- Name
  Node 30;                                !- Node Name 1

NodeList,
  Zona P3_0_1 Exhaust Node List,          !- Name
  Node 29;                                !- Node Name 1

ZoneHVAC:PackagedTerminalAirConditioner,
  Ar condicionado P3_0_1,                 !- Name
  HVAC 07-22,                             !- Availability Schedule Name
  Node 29,                                !- Air Inlet Node Name
  Node 30,                                !- Air Outlet Node Name
  OutdoorAir:Mixer,                       !- Outdoor Air Mixer Object Type
  Ar condicionado P3_0_1 OA Mixer,        !- Outdoor Air Mixer Name
  Autosize,                               !- Cooling Supply Air Flow Rate {m3/s}
  Autosize,                               !- Heating Supply Air Flow Rate {m3/s}
  Autosize,                               !- No Load Supply Air Flow Rate {m3/s}
  Yes,                                    !- No Load Supply Air Flow Rate Control Set To Low Speed
  0.45,                                   !- Cooling Outdoor Air Flow Rate {m3/s}
  0.45,                                   !- Heating Outdoor Air Flow Rate {m3/s}
  0.45,                                   !- No Load Outdoor Air Flow Rate {m3/s}
  Fan:ConstantVolume,                     !- Supply Air Fan Object Type
  Fan Constant Volume 10,                 !- Supply Air Fan Name
  Coil:Heating:Electric,                  !- Heating Coil Object Type
  Coil Heating Electric 10,               !- Heating Coil Name
  Coil:Cooling:DX:SingleSpeed,            !- Cooling Coil Object Type
  Coil Cooling DX Single Speed 10,        !- Cooling Coil Name
  DrawThrough,                            !- Fan Placement
  Always On Discrete;                     !- Supply Air Fan Operating Mode Schedule Name

OutdoorAir:Mixer,
  Ar condicionado P3_0_1 OA Mixer,        !- Name
  Ar condicionado P3_0_1 Mixed Air Node,  !- Mixed Air Node Name
  Ar condicionado P3_0_1 OA Node,         !- Outdoor Air Stream Node Name
  Ar condicionado P3_0_1 Relief Air Node, !- Relief Air Stream Node Name
  Node 29;                                !- Return Air Stream Node Name

OutdoorAir:NodeList,
  Ar condicionado P3_0_1 OA Node;         !- Node or NodeList Name 1

Fan:ConstantVolume,
  Fan Constant Volume 10,                 !- Name
  Always On Discrete,                     !- Availability Schedule Name
  0.6,                                    !- Fan Total Efficiency
  350,                                    !- Pressure Rise {Pa}
  AutoSize,                               !- Maximum Flow Rate {m3/s}
  0.9,                                    !- Motor Efficiency
  1,                                      !- Motor In Airstream Fraction
  Ar condicionado P3_0_1 Heating Coil Outlet Node, !- Air Inlet Node Name
  Node 30,                                !- Air Outlet Node Name
  ;                                       !- End-Use Subcategory

Coil:Heating:Electric,
  Coil Heating Electric 10,               !- Name
  Always On Discrete,                     !- Availability Schedule Name
  1,                                      !- Efficiency
  Autosize,                               !- Nominal Capacity {W}
  Ar condicionado P3_0_1 Cooling Coil Outlet Node, !- Air Inlet Node Name
  Ar condicionado P3_0_1 Heating Coil Outlet Node; !- Air Outlet Node Name

Curve:Biquadratic,
  Curve Biquadratic 19,                   !- Name
  0.942587793,                            !- Coefficient1 Constant
  0.009543347,                            !- Coefficient2 x
  0.00068377,                             !- Coefficient3 x**2
  -0.011042676,                           !- Coefficient4 y
  5.249e-06,                              !- Coefficient5 y**2
  -9.72e-06,                              !- Coefficient6 x*y
  17,                                     !- Minimum Value of x {BasedOnField A2}
  22,                                     !- Maximum Value of x {BasedOnField A2}
  13,                                     !- Minimum Value of y {BasedOnField A3}
  46;                                     !- Maximum Value of y {BasedOnField A3}

Curve:Quadratic,
  Curve Quadratic 28,                     !- Name
  0.8,                                    !- Coefficient1 Constant
  0.2,                                    !- Coefficient2 x
  0,                                      !- Coefficient3 x**2
  0.5,                                    !- Minimum Value of x {BasedOnField A2}
  1.5;                                    !- Maximum Value of x {BasedOnField A2}

Curve:Biquadratic,
  Curve Biquadratic 20,                   !- Name
  0.342414409,                            !- Coefficient1 Constant
  0.034885008,                            !- Coefficient2 x
  -0.0006237,                             !- Coefficient3 x**2
  0.004977216,                            !- Coefficient4 y
  0.000437951,                            !- Coefficient5 y**2
  -0.000728028,                           !- Coefficient6 x*y
  17,                                     !- Minimum Value of x {BasedOnField A2}
  22,                                     !- Maximum Value of x {BasedOnField A2}
  13,                                     !- Minimum Value of y {BasedOnField A3}
  46;                                     !- Maximum Value of y {BasedOnField A3}

Curve:Quadratic,
  Curve Quadratic 29,                     !- Name
  1.1552,                                 !- Coefficient1 Constant
  -0.1808,                                !- Coefficient2 x
  0.0256,                                 !- Coefficient3 x**2
  0.5,                                    !- Minimum Value of x {BasedOnField A2}
  1.5;                                    !- Maximum Value of x {BasedOnField A2}

Curve:Quadratic,
  Curve Quadratic 30,                     !- Name
  0.85,                                   !- Coefficient1 Constant
  0.15,                                   !- Coefficient2 x
  0,                                      !- Coefficient3 x**2
  0,                                      !- Minimum Value of x {BasedOnField A2}
  1;                                      !- Maximum Value of x {BasedOnField A2}

Coil:Cooling:DX:SingleSpeed,
  Coil Cooling DX Single Speed 10,        !- Name
  Always On Discrete,                     !- Availability Schedule Name
  Autosize,                               !- Gross Rated Total Cooling Capacity {W}
  Autosize,                               !- Gross Rated Sensible Heat Ratio
  3.2,                                    !- Gross Rated Cooling COP {W/W}
  Autosize,                               !- Rated Air Flow Rate {m3/s}
  773.3,                                  !- Rated Evaporator Fan Power Per Volume Flow Rate 2017 {W/(m3/s)}
  934.4,                                  !- Rated Evaporator Fan Power Per Volume Flow Rate 2023 {W/(m3/s)}
  Ar condicionado P3_0_1 Mixed Air Node,  !- Air Inlet Node Name
  Ar condicionado P3_0_1 Cooling Coil Outlet Node, !- Air Outlet Node Name
  Curve Biquadratic 19,                   !- Total Cooling Capacity Function of Temperature Curve Name
  Curve Quadratic 28,                     !- Total Cooling Capacity Function of Flow Fraction Curve Name
  Curve Biquadratic 20,                   !- Energy Input Ratio Function of Temperature Curve Name
  Curve Quadratic 29,                     !- Energy Input Ratio Function of Flow Fraction Curve Name
  Curve Quadratic 30,                     !- Part Load Fraction Correlation Curve Name
  -25,                                    !- Minimum Outdoor Dry-Bulb Temperature for Compressor Operation {C}
  0,                                      !- Nominal Time for Condensate Removal to Begin {s}
  0,                                      !- Ratio of Initial Moisture Evaporation Rate and Steady State Latent Capacity {dimensionless}
  0,                                      !- Maximum Cycling Rate {cycles/hr}
  0,                                      !- Latent Capacity Time Constant {s}
  ,                                       !- Condenser Air Inlet Node Name
  AirCooled,                              !- Condenser Type
  0.9,                                    !- Evaporative Condenser Effectiveness {dimensionless}
  Autosize,                               !- Evaporative Condenser Air Flow Rate {m3/s}
  Autosize,                               !- Evaporative Condenser Pump Rated Power Consumption {W}
  0,                                      !- Crankcase Heater Capacity {W}
  ,                                       !- Crankcase Heater Capacity Function of Temperature Curve Name
  10,                                     !- Maximum Outdoor Dry-Bulb Temperature for Crankcase Heater Operation {C}
  ,                                       !- Supply Water Storage Tank Name
  ,                                       !- Condensate Collection Water Storage Tank Name
  0,                                      !- Basin Heater Capacity {W/K}
  2;                                      !- Basin Heater Setpoint Temperature {C}

ZoneHVAC:EquipmentList,
  Zona P3_0_1 Equipment List,             !- Name
  SequentialLoad,                         !- Load Distribution Scheme
  ZoneHVAC:PackagedTerminalAirConditioner, !- Zone Equipment Object Type 1
  Ar condicionado P3_0_1,                 !- Zone Equipment Name 1
  1,                                      !- Zone Equipment Cooling Sequence 1
  1,                                      !- Zone Equipment Heating or No-Load Sequence 1
  ,                                       !- Zone Equipment Sequential Cooling Fraction Schedule Name 1
  ;                                       !- Zone Equipment Sequential Heating Fraction Schedule Name 1

Sizing:Zone,
  Zona P3_0_1,                            !- Zone or ZoneList Name
  SupplyAirTemperature,                   !- Zone Cooling Design Supply Air Temperature Input Method
  14,                                     !- Zone Cooling Design Supply Air Temperature {C}
  11.11,                                  !- Zone Cooling Design Supply Air Temperature Difference {deltaC}
  SupplyAirTemperature,                   !- Zone Heating Design Supply Air Temperature Input Method
  40,                                     !- Zone Heating Design Supply Air Temperature {C}
  11.11,                                  !- Zone Heating Design Supply Air Temperature Difference {deltaC}
  0.0085,                                 !- Zone Cooling Design Supply Air Humidity Ratio {kgWater/kgDryAir}
  0.008,                                  !- Zone Heating Design Supply Air Humidity Ratio {kgWater/kgDryAir}
  Design Specification Outdoor Air 10,    !- Design Specification Outdoor Air Object Name
  ,                                       !- Zone Heating Sizing Factor
  ,                                       !- Zone Cooling Sizing Factor
  DesignDay,                              !- Cooling Design Air Flow Method
  0,                                      !- Cooling Design Air Flow Rate {m3/s}
  0.000762,                               !- Cooling Minimum Air Flow per Zone Floor Area {m3/s-m2}
  0,                                      !- Cooling Minimum Air Flow {m3/s}
  0,                                      !- Cooling Minimum Air Flow Fraction
  DesignDay,                              !- Heating Design Air Flow Method
  0,                                      !- Heating Design Air Flow Rate {m3/s}
  0.002032,                               !- Heating Maximum Air Flow per Zone Floor Area {m3/s-m2}
  0.1415762,                              !- Heating Maximum Air Flow {m3/s}
  0.3,                                    !- Heating Maximum Air Flow Fraction
  ,                                       !- Design Specification Zone Air Distribution Object Name
  No,                                     !- Account for Dedicated Outdoor Air System
  ,                                       !- Dedicated Outdoor Air System Control Strategy
  ,                                       !- Dedicated Outdoor Air Low Setpoint Temperature for Design {C}
  ,                                       !- Dedicated Outdoor Air High Setpoint Temperature for Design {C}
  Sensible Load Only No Latent Load,      !- Zone Load Sizing Method
  HumidityRatioDifference,                !- Zone Latent Cooling Design Supply Air Humidity Ratio Input Method
  ,                                       !- Zone Dehumidification Design Supply Air Humidity Ratio {kgWater/kgDryAir}
  0.005,                                  !- Zone Cooling Design Supply Air Humidity Ratio Difference {kgWater/kgDryAir}
  HumidityRatioDifference,                !- Zone Latent Heating Design Supply Air Humidity Ratio Input Method
  ,                                       !- Zone Humidification Design Supply Air Humidity Ratio {kgWater/kgDryAir}
  0.005,                                  !- Zone Humidification Design Supply Air Humidity Ratio Difference {kgWater/kgDryAir}
  ,                                       !- Zone Humidistat Dehumidification Set Point Schedule Name
  ,                                       !- Zone Humidistat Humidification Set Point Schedule Name
  Coincident,                             !- Type of Space Sum to Use
  None,                                   !- Heating Coil Sizing Method
  1;                                      !- Maximum Heating Capacity To Cooling Load Sizing Ratio {W/W}

DesignSpecification:OutdoorAir,
  Design Specification Outdoor Air 10,    !- Name
  Sum,                                    !- Outdoor Air Method
  0.0075,                                 !- Outdoor Air Flow per Person {m3/s-person}
  0.0003,                                 !- Outdoor Air Flow per Zone Floor Area {m3/s-m2}
  0,                                      !- Outdoor Air Flow per Zone {m3/s}
  0;                                      !- Outdoor Air Flow Air Changes per Hour {1/hr}

Zone,
  Zona P3_1_0,                            !- Name
  ,                                       !- Direction of Relative North {deg}
  0,                                      !- X Origin {m}
  0,                                      !- Y Origin {m}
  0,                                      !- Z Origin {m}
  ,                                       !- Type
  1,                                      !- Multiplier
  ,                                       !- Ceiling Height {m}
  ,                                       !- Volume {m3}
  ,                                       !- Floor Area {m2}
  ,                                       !- Zone Inside Convection Algorithm
  ,                                       !- Zone Outside Convection Algorithm
  Yes;                                    !- Part of Total Floor Area

Space,
  P3_1_0,                                 !- Name
  Zona P3_1_0,                            !- Zone Name
  ,                                       !- Ceiling Height {m}
  ,                                       !- Volume {m3}
  ;                                       !- Floor Area {m2}

BuildingSurface:Detailed,
  Surface 61,                             !- Name
  Floor,                                  !- Surface Type
  Laje concreto,                          !- Construction Name
  Zona P3_1_0,                            !- Zone Name
  P3_1_0,                                 !- Space Name
  Surface,                                !- Outside Boundary Condition
  Surface 42,                             !- Outside Boundary Condition Object
  NoSun,                                  !- Sun Exposure
  NoWind,                                 !- Wind Exposure
  ,                                       !- View Factor to Ground
  ,                                       !- Number of Vertices
  25, 0, 7,                               !- X,Y,Z Vertex 1 {m}
  25, 20, 7,                              !- X,Y,Z Vertex 2 {m}
  50, 20, 7,                              !- X,Y,Z Vertex 3 {m}
  50, 0, 7;                               !- X,Y,Z Vertex 4 {m}

BuildingSurface:Detailed,
  Surface 62,                             !- Name
  Wall,                                   !- Surface Type
  Alvenaria rebocada,                     !- Construction Name
  Zona P3_1_0,                            !- Zone Name
  P3_1_0,                                 !- Space Name
  Surface,                                !- Outside Boundary Condition
  Surface 52,                             !- Outside Boundary Condition Object
  NoSun,                                  !- Sun Exposure
  NoWind,                                 !- Wind Exposure
  ,                                       !- View Factor to Ground
  ,                                       !- Number of Vertices
  25, 0, 10.5,                            !- X,Y,Z Vertex 1 {m}
  25, 20, 10.5,                           !- X,Y,Z Vertex 2 {m}
  25, 20, 7,                              !- X,Y,Z Vertex 3 {m}
  25, 0, 7;                               !- X,Y,Z Vertex 4 {m}

BuildingSurface:Detailed,
  Surface 63,                             !- Name
  Wall,                                   !- Surface Type
  Alvenaria rebocada,                     !- Construction Name
  Zona P3_1_0,                            !- Zone Name
  P3_1_0,                                 !- Space Name
  Surface,                                !- Outside Boundary Condition
  Surface 71,                             !- Outside Boundary Condition Object
  NoSun,                                  !- Sun Exposure
  NoWind,                                 !- Wind Exposure
  ,                                       !- View Factor to Ground
  ,                                       !- Number of Vertices
  25, 20, 10.5,                           !- X,Y,Z Vertex 1 {m}
  50, 20, 10.5,                           !- X,Y,Z Vertex 2 {m}
  50, 20, 7,                              !- X,Y,Z Vertex 3 {m}
  25, 20, 7;                              !- X,Y,Z Vertex 4 {m}

BuildingSurface:Detailed,
  Surface 64,                             !- Name
  Wall,                                   !- Surface Type
  Alvenaria rebocada,                     !- Construction Name
  Zona P3_1_0,                            !- Zone Name
  P3_1_0,                                 !- Space Name
  Outdoors,                               !- Outside Boundary Condition
  ,                                       !- Outside Boundary Condition Object
  SunExposed,                             !- Sun Exposure
  WindExposed,                            !- Wind Exposure
  ,                                       !- View Factor to Ground
  ,                                       !- Number of Vertices
  50, 20, 10.5,                           !- X,Y,Z Vertex 1 {m}
  50, 0, 10.5,                            !- X,Y,Z Vertex 2 {m}
  50, 0, 7,                               !- X,Y,Z Vertex 3 {m}
  50, 20, 7;                              !- X,Y,Z Vertex 4 {m}

FenestrationSurface:Detailed,
  Sub Surface 25,                         !- Name
  Window,                                 !- Surface Type
  Vidro U3 SHGC0.4,                       !- Construction Name
  Surface 64,                             !- Building Surface Name
  ,                                       !- Outside Boundary Condition Object
  ,                                       !- View Factor to Ground
  ,                                       !- Frame and Divider Name
  ,                                       !- Multiplier
  ,                                       !- Number of Vertices
  50, 0.0254, 8.81467379143023,           !- X,Y,Z Vertex 1 {m}
  50, 0.0254, 7.762,                      !- X,Y,Z Vertex 2 {m}
  50, 19.9746, 7.762,                     !- X,Y,Z Vertex 3 {m}
  50, 19.9746, 8.81467379143023;          !- X,Y,Z Vertex 4 {m}

BuildingSurface:Detailed,
  Surface 65,                             !- Name
  Wall,                                   !- Surface Type
  Alvenaria rebocada,                     !- Construction Name
  Zona P3_1_0,                            !- Zone Name
  P3_1_0,                                 !- Space Name
  Outdoors,                               !- Outside Boundary Condition
  ,                                       !- Outside Boundary Condition Object
  SunExposed,                             !- Sun Exposure
  WindExposed,                            !- Wind Exposure
  ,                                       !- View Factor to Ground
  ,                                       !- Number of Vertices
  50, 0, 10.5,                            !- X,Y,Z Vertex 1 {m}
  25, 0, 10.5,                            !- X,Y,Z Vertex 2 {m}
  25, 0, 7,                               !- X,Y,Z Vertex 3 {m}
  50, 0, 7;                               !- X,Y,Z Vertex 4 {m}

FenestrationSurface:Detailed,
  Sub Surface 26,                         !- Name
  Window,                                 !- Surface Type
  Vidro U3 SHGC0.4,                       !- Construction Name
  Surface 65,                             !- Building Surface Name
  ,                                       !- Outside Boundary Condition Object
  ,                                       !- View Factor to Ground
  ,                                       !- Frame and Divider Name
  ,                                       !- Multiplier
  ,                                       !- Number of Vertices
  25.0254, 0, 8.81413794430282,           !- X,Y,Z Vertex 1 {m}
  25.0254, 0, 7.762,                      !- X,Y,Z Vertex 2 {m}
  49.9746, 0, 7.762,                      !- X,Y,Z Vertex 3 {m}
  49.9746, 0, 8.81413794430282;           !- X,Y,Z Vertex 4 {m}

BuildingSurface:Detailed,
  Surface 66,                             !- Name
  Ceiling,                                !- Surface Type
  Laje concreto,                          !- Construction Name
  Zona P3_1_0,                            !- Zone Name
  P3_1_0,                                 !- Space Name
  Surface,                                !- Outside Boundary Condition
  Surface 85,                             !- Outside Boundary Condition Object
  NoSun,                                  !- Sun Exposure
  NoWind,                                 !- Wind Exposure
  ,                                       !- View Factor to Ground
  ,                                       !- Number of Vertices
  50, 0, 10.5,                            !- X,Y,Z Vertex 1 {m}
  50, 20, 10.5,                           !- X,Y,Z Vertex 2 {m}
  25, 20, 10.5,                           !- X,Y,Z Vertex 3 {m}
  25, 0, 10.5;                            !- X,Y,Z Vertex 4 {m}

Lights,
  Lights 11,                              !- Name
  P3_1_0,                                 !- Zone or ZoneList or Space or SpaceList Name
  Iluminacao,                             !- Schedule Name
  Watts/Area,                             !- Design Level Calculation Method
  ,                                       !- Lighting Level {W}
  8,                                      !- Watts per Floor Area {W/m2}
  ,                                       !- Watts per Person {W/person}
  ,                                       !- Return Air Fraction
  ,                                       !- Fraction Radiant
  ,                                       !- Fraction Visible
  1,                                      !- Fraction Replaceable
  General;                                !- End-Use Subcategory

People,
  People 11,                              !- Name
  P3_1_0,                                 !- Zone or ZoneList or Space or SpaceList Name
  Ocupacao,                               !- Number of People Schedule Name
  People/Area,                            !- Number of People Calculation Method
  ,                                       !- Number of People
  0.08,                                   !- People per Floor Area {person/m2}
  ,                                       !- Floor Area per Person {m2/person}
  0.3,                                    !- Fraction Radiant
  ,                                       !- Sensible Heat Fraction
  Atividade sedentaria 120 W pessoa,      !- Activity Level Schedule Name
  ,                                       !- Carbon Dioxide Generation Rate {m3/s-W}
  ,                                       !- Enable ASHRAE 55 Comfort Warnings
  ,                                       !- Mean Radiant Temperature Calculation Type
  ,                                       !- Surface Name/Angle Factor List Name
  ,                                       !- Work Efficiency Schedule Name
  ClothingInsulationSchedule;             !- Clothing Insulation Calculation Method

ElectricEquipment,
  Electric Equipment 11,                  !- Name
  P3_1_0,                                 !- Zone or ZoneList or Space or SpaceList Name
  Computadores e demais equipamentos,     !- Schedule Name
  Watts/Area,                             !- Design Level Calculation Method
  ,                                       !- Design Level {W}
  12,                                     !- Watts per Floor Area {W/m2}
  ,                                       !- Watts per Person {W/person}
  ,                                       !- Fraction Latent
  ,                                       !- Fraction Radiant
  ,                                       !- Fraction Lost
  Computadores e cargas de escritorio;    !- End-Use Subcategory

ZoneInfiltration:DesignFlowRate,
  Space Infiltration Design Flow Rate 11, !- Name
  P3_1_0,                                 !- Zone or ZoneList or Space or SpaceList Name
  Always On Discrete,                     !- Schedule Name
  AirChanges/Hour,                        !- Design Flow Rate Calculation Method
  ,                                       !- Design Flow Rate {m3/s}
  ,                                       !- Flow Rate per Floor Area {m3/s-m2}
  ,                                       !- Flow Rate per Exterior Surface Area {m3/s-m2}
  0.15,                                   !- Air Changes per Hour {1/hr}
  ,                                       !- Constant Term Coefficient
  ,                                       !- Temperature Term Coefficient
  ,                                       !- Velocity Term Coefficient
  ,                                       !- Velocity Squared Term Coefficient
  Outdoor;                                !- Density Basis

ZoneControl:Thermostat,
  Zona P3_1_0 Thermostat,                 !- Name
  Zona P3_1_0,                            !- Zone or ZoneList Name
  Zona P3_1_0 Thermostat Schedule,        !- Control Type Schedule Name
  ThermostatSetpoint:DualSetpoint,        !- Control 1 Object Type
  Thermostat Setpoint Dual Setpoint 11,   !- Control 1 Name
  ,                                       !- Control 2 Object Type
  ,                                       !- Control 2 Name
  ,                                       !- Control 3 Object Type
  ,                                       !- Control 3 Name
  ,                                       !- Control 4 Object Type
  ,                                       !- Control 4 Name
  0;                                      !- Temperature Difference Between Cutout And Setpoint {deltaC}

Schedule:Compact,
  Zona P3_1_0 Thermostat Schedule,        !- Name
  Zona P3_1_0 Thermostat Schedule Type Limits, !- Schedule Type Limits Name
  Through: 12/31,                         !- Field 1
  For: AllDays,                           !- Field 2
  Until: 24:00,                           !- Field 3
  4;                                      !- Field 4

ScheduleTypeLimits,
  Zona P3_1_0 Thermostat Schedule Type Limits, !- Name
  0,                                      !- Lower Limit Value {BasedOnField A3}
  4,                                      !- Upper Limit Value {BasedOnField A3}
  DISCRETE;                               !- Numeric Type

ThermostatSetpoint:DualSetpoint,
  Thermostat Setpoint Dual Setpoint 11,   !- Name
  Aquecimento 20C,                        !- Heating Setpoint Temperature Schedule Name
  Resfriamento 24C;                       !- Cooling Setpoint Temperature Schedule Name

ZoneHVAC:EquipmentConnections,
  Zona P3_1_0,                            !- Zone Name
  Zona P3_1_0 Equipment List,             !- Zone Conditioning Equipment List Name
  Zona P3_1_0 Inlet Node List,            !- Zone Air Inlet Node or NodeList Name
  Zona P3_1_0 Exhaust Node List,          !- Zone Air Exhaust Node or NodeList Name
  Node 31;                                !- Zone Air Node Name

NodeList,
  Zona P3_1_0 Inlet Node List,            !- Name
  Node 33;                                !- Node Name 1

NodeList,
  Zona P3_1_0 Exhaust Node List,          !- Name
  Node 32;                                !- Node Name 1

ZoneHVAC:PackagedTerminalAirConditioner,
  Ar condicionado P3_1_0,                 !- Name
  HVAC 07-22,                             !- Availability Schedule Name
  Node 32,                                !- Air Inlet Node Name
  Node 33,                                !- Air Outlet Node Name
  OutdoorAir:Mixer,                       !- Outdoor Air Mixer Object Type
  Ar condicionado P3_1_0 OA Mixer,        !- Outdoor Air Mixer Name
  Autosize,                               !- Cooling Supply Air Flow Rate {m3/s}
  Autosize,                               !- Heating Supply Air Flow Rate {m3/s}
  Autosize,                               !- No Load Supply Air Flow Rate {m3/s}
  Yes,                                    !- No Load Supply Air Flow Rate Control Set To Low Speed
  0.45,                                   !- Cooling Outdoor Air Flow Rate {m3/s}
  0.45,                                   !- Heating Outdoor Air Flow Rate {m3/s}
  0.45,                                   !- No Load Outdoor Air Flow Rate {m3/s}
  Fan:ConstantVolume,                     !- Supply Air Fan Object Type
  Fan Constant Volume 11,                 !- Supply Air Fan Name
  Coil:Heating:Electric,                  !- Heating Coil Object Type
  Coil Heating Electric 11,               !- Heating Coil Name
  Coil:Cooling:DX:SingleSpeed,            !- Cooling Coil Object Type
  Coil Cooling DX Single Speed 11,        !- Cooling Coil Name
  DrawThrough,                            !- Fan Placement
  Always On Discrete;                     !- Supply Air Fan Operating Mode Schedule Name

OutdoorAir:Mixer,
  Ar condicionado P3_1_0 OA Mixer,        !- Name
  Ar condicionado P3_1_0 Mixed Air Node,  !- Mixed Air Node Name
  Ar condicionado P3_1_0 OA Node,         !- Outdoor Air Stream Node Name
  Ar condicionado P3_1_0 Relief Air Node, !- Relief Air Stream Node Name
  Node 32;                                !- Return Air Stream Node Name

OutdoorAir:NodeList,
  Ar condicionado P3_1_0 OA Node;         !- Node or NodeList Name 1

Fan:ConstantVolume,
  Fan Constant Volume 11,                 !- Name
  Always On Discrete,                     !- Availability Schedule Name
  0.6,                                    !- Fan Total Efficiency
  350,                                    !- Pressure Rise {Pa}
  AutoSize,                               !- Maximum Flow Rate {m3/s}
  0.9,                                    !- Motor Efficiency
  1,                                      !- Motor In Airstream Fraction
  Ar condicionado P3_1_0 Heating Coil Outlet Node, !- Air Inlet Node Name
  Node 33,                                !- Air Outlet Node Name
  ;                                       !- End-Use Subcategory

Coil:Heating:Electric,
  Coil Heating Electric 11,               !- Name
  Always On Discrete,                     !- Availability Schedule Name
  1,                                      !- Efficiency
  Autosize,                               !- Nominal Capacity {W}
  Ar condicionado P3_1_0 Cooling Coil Outlet Node, !- Air Inlet Node Name
  Ar condicionado P3_1_0 Heating Coil Outlet Node; !- Air Outlet Node Name

Curve:Biquadratic,
  Curve Biquadratic 21,                   !- Name
  0.942587793,                            !- Coefficient1 Constant
  0.009543347,                            !- Coefficient2 x
  0.00068377,                             !- Coefficient3 x**2
  -0.011042676,                           !- Coefficient4 y
  5.249e-06,                              !- Coefficient5 y**2
  -9.72e-06,                              !- Coefficient6 x*y
  17,                                     !- Minimum Value of x {BasedOnField A2}
  22,                                     !- Maximum Value of x {BasedOnField A2}
  13,                                     !- Minimum Value of y {BasedOnField A3}
  46;                                     !- Maximum Value of y {BasedOnField A3}

Curve:Quadratic,
  Curve Quadratic 31,                     !- Name
  0.8,                                    !- Coefficient1 Constant
  0.2,                                    !- Coefficient2 x
  0,                                      !- Coefficient3 x**2
  0.5,                                    !- Minimum Value of x {BasedOnField A2}
  1.5;                                    !- Maximum Value of x {BasedOnField A2}

Curve:Biquadratic,
  Curve Biquadratic 22,                   !- Name
  0.342414409,                            !- Coefficient1 Constant
  0.034885008,                            !- Coefficient2 x
  -0.0006237,                             !- Coefficient3 x**2
  0.004977216,                            !- Coefficient4 y
  0.000437951,                            !- Coefficient5 y**2
  -0.000728028,                           !- Coefficient6 x*y
  17,                                     !- Minimum Value of x {BasedOnField A2}
  22,                                     !- Maximum Value of x {BasedOnField A2}
  13,                                     !- Minimum Value of y {BasedOnField A3}
  46;                                     !- Maximum Value of y {BasedOnField A3}

Curve:Quadratic,
  Curve Quadratic 32,                     !- Name
  1.1552,                                 !- Coefficient1 Constant
  -0.1808,                                !- Coefficient2 x
  0.0256,                                 !- Coefficient3 x**2
  0.5,                                    !- Minimum Value of x {BasedOnField A2}
  1.5;                                    !- Maximum Value of x {BasedOnField A2}

Curve:Quadratic,
  Curve Quadratic 33,                     !- Name
  0.85,                                   !- Coefficient1 Constant
  0.15,                                   !- Coefficient2 x
  0,                                      !- Coefficient3 x**2
  0,                                      !- Minimum Value of x {BasedOnField A2}
  1;                                      !- Maximum Value of x {BasedOnField A2}

Coil:Cooling:DX:SingleSpeed,
  Coil Cooling DX Single Speed 11,        !- Name
  Always On Discrete,                     !- Availability Schedule Name
  Autosize,                               !- Gross Rated Total Cooling Capacity {W}
  Autosize,                               !- Gross Rated Sensible Heat Ratio
  3.2,                                    !- Gross Rated Cooling COP {W/W}
  Autosize,                               !- Rated Air Flow Rate {m3/s}
  773.3,                                  !- Rated Evaporator Fan Power Per Volume Flow Rate 2017 {W/(m3/s)}
  934.4,                                  !- Rated Evaporator Fan Power Per Volume Flow Rate 2023 {W/(m3/s)}
  Ar condicionado P3_1_0 Mixed Air Node,  !- Air Inlet Node Name
  Ar condicionado P3_1_0 Cooling Coil Outlet Node, !- Air Outlet Node Name
  Curve Biquadratic 21,                   !- Total Cooling Capacity Function of Temperature Curve Name
  Curve Quadratic 31,                     !- Total Cooling Capacity Function of Flow Fraction Curve Name
  Curve Biquadratic 22,                   !- Energy Input Ratio Function of Temperature Curve Name
  Curve Quadratic 32,                     !- Energy Input Ratio Function of Flow Fraction Curve Name
  Curve Quadratic 33,                     !- Part Load Fraction Correlation Curve Name
  -25,                                    !- Minimum Outdoor Dry-Bulb Temperature for Compressor Operation {C}
  0,                                      !- Nominal Time for Condensate Removal to Begin {s}
  0,                                      !- Ratio of Initial Moisture Evaporation Rate and Steady State Latent Capacity {dimensionless}
  0,                                      !- Maximum Cycling Rate {cycles/hr}
  0,                                      !- Latent Capacity Time Constant {s}
  ,                                       !- Condenser Air Inlet Node Name
  AirCooled,                              !- Condenser Type
  0.9,                                    !- Evaporative Condenser Effectiveness {dimensionless}
  Autosize,                               !- Evaporative Condenser Air Flow Rate {m3/s}
  Autosize,                               !- Evaporative Condenser Pump Rated Power Consumption {W}
  0,                                      !- Crankcase Heater Capacity {W}
  ,                                       !- Crankcase Heater Capacity Function of Temperature Curve Name
  10,                                     !- Maximum Outdoor Dry-Bulb Temperature for Crankcase Heater Operation {C}
  ,                                       !- Supply Water Storage Tank Name
  ,                                       !- Condensate Collection Water Storage Tank Name
  0,                                      !- Basin Heater Capacity {W/K}
  2;                                      !- Basin Heater Setpoint Temperature {C}

ZoneHVAC:EquipmentList,
  Zona P3_1_0 Equipment List,             !- Name
  SequentialLoad,                         !- Load Distribution Scheme
  ZoneHVAC:PackagedTerminalAirConditioner, !- Zone Equipment Object Type 1
  Ar condicionado P3_1_0,                 !- Zone Equipment Name 1
  1,                                      !- Zone Equipment Cooling Sequence 1
  1,                                      !- Zone Equipment Heating or No-Load Sequence 1
  ,                                       !- Zone Equipment Sequential Cooling Fraction Schedule Name 1
  ;                                       !- Zone Equipment Sequential Heating Fraction Schedule Name 1

Sizing:Zone,
  Zona P3_1_0,                            !- Zone or ZoneList Name
  SupplyAirTemperature,                   !- Zone Cooling Design Supply Air Temperature Input Method
  14,                                     !- Zone Cooling Design Supply Air Temperature {C}
  11.11,                                  !- Zone Cooling Design Supply Air Temperature Difference {deltaC}
  SupplyAirTemperature,                   !- Zone Heating Design Supply Air Temperature Input Method
  40,                                     !- Zone Heating Design Supply Air Temperature {C}
  11.11,                                  !- Zone Heating Design Supply Air Temperature Difference {deltaC}
  0.0085,                                 !- Zone Cooling Design Supply Air Humidity Ratio {kgWater/kgDryAir}
  0.008,                                  !- Zone Heating Design Supply Air Humidity Ratio {kgWater/kgDryAir}
  Design Specification Outdoor Air 11,    !- Design Specification Outdoor Air Object Name
  ,                                       !- Zone Heating Sizing Factor
  ,                                       !- Zone Cooling Sizing Factor
  DesignDay,                              !- Cooling Design Air Flow Method
  0,                                      !- Cooling Design Air Flow Rate {m3/s}
  0.000762,                               !- Cooling Minimum Air Flow per Zone Floor Area {m3/s-m2}
  0,                                      !- Cooling Minimum Air Flow {m3/s}
  0,                                      !- Cooling Minimum Air Flow Fraction
  DesignDay,                              !- Heating Design Air Flow Method
  0,                                      !- Heating Design Air Flow Rate {m3/s}
  0.002032,                               !- Heating Maximum Air Flow per Zone Floor Area {m3/s-m2}
  0.1415762,                              !- Heating Maximum Air Flow {m3/s}
  0.3,                                    !- Heating Maximum Air Flow Fraction
  ,                                       !- Design Specification Zone Air Distribution Object Name
  No,                                     !- Account for Dedicated Outdoor Air System
  ,                                       !- Dedicated Outdoor Air System Control Strategy
  ,                                       !- Dedicated Outdoor Air Low Setpoint Temperature for Design {C}
  ,                                       !- Dedicated Outdoor Air High Setpoint Temperature for Design {C}
  Sensible Load Only No Latent Load,      !- Zone Load Sizing Method
  HumidityRatioDifference,                !- Zone Latent Cooling Design Supply Air Humidity Ratio Input Method
  ,                                       !- Zone Dehumidification Design Supply Air Humidity Ratio {kgWater/kgDryAir}
  0.005,                                  !- Zone Cooling Design Supply Air Humidity Ratio Difference {kgWater/kgDryAir}
  HumidityRatioDifference,                !- Zone Latent Heating Design Supply Air Humidity Ratio Input Method
  ,                                       !- Zone Humidification Design Supply Air Humidity Ratio {kgWater/kgDryAir}
  0.005,                                  !- Zone Humidification Design Supply Air Humidity Ratio Difference {kgWater/kgDryAir}
  ,                                       !- Zone Humidistat Dehumidification Set Point Schedule Name
  ,                                       !- Zone Humidistat Humidification Set Point Schedule Name
  Coincident,                             !- Type of Space Sum to Use
  None,                                   !- Heating Coil Sizing Method
  1;                                      !- Maximum Heating Capacity To Cooling Load Sizing Ratio {W/W}

DesignSpecification:OutdoorAir,
  Design Specification Outdoor Air 11,    !- Name
  Sum,                                    !- Outdoor Air Method
  0.0075,                                 !- Outdoor Air Flow per Person {m3/s-person}
  0.0003,                                 !- Outdoor Air Flow per Zone Floor Area {m3/s-m2}
  0,                                      !- Outdoor Air Flow per Zone {m3/s}
  0;                                      !- Outdoor Air Flow Air Changes per Hour {1/hr}

Zone,
  Zona P3_1_1,                            !- Name
  ,                                       !- Direction of Relative North {deg}
  0,                                      !- X Origin {m}
  0,                                      !- Y Origin {m}
  0,                                      !- Z Origin {m}
  ,                                       !- Type
  1,                                      !- Multiplier
  ,                                       !- Ceiling Height {m}
  ,                                       !- Volume {m3}
  ,                                       !- Floor Area {m2}
  ,                                       !- Zone Inside Convection Algorithm
  ,                                       !- Zone Outside Convection Algorithm
  Yes;                                    !- Part of Total Floor Area

Space,
  P3_1_1,                                 !- Name
  Zona P3_1_1,                            !- Zone Name
  ,                                       !- Ceiling Height {m}
  ,                                       !- Volume {m3}
  ;                                       !- Floor Area {m2}

BuildingSurface:Detailed,
  Surface 67,                             !- Name
  Floor,                                  !- Surface Type
  Laje concreto,                          !- Construction Name
  Zona P3_1_1,                            !- Zone Name
  P3_1_1,                                 !- Space Name
  Surface,                                !- Outside Boundary Condition
  Surface 48,                             !- Outside Boundary Condition Object
  NoSun,                                  !- Sun Exposure
  NoWind,                                 !- Wind Exposure
  ,                                       !- View Factor to Ground
  ,                                       !- Number of Vertices
  25, 20, 7,                              !- X,Y,Z Vertex 1 {m}
  25, 40, 7,                              !- X,Y,Z Vertex 2 {m}
  50, 40, 7,                              !- X,Y,Z Vertex 3 {m}
  50, 20, 7;                              !- X,Y,Z Vertex 4 {m}

BuildingSurface:Detailed,
  Surface 68,                             !- Name
  Wall,                                   !- Surface Type
  Alvenaria rebocada,                     !- Construction Name
  Zona P3_1_1,                            !- Zone Name
  P3_1_1,                                 !- Space Name
  Surface,                                !- Outside Boundary Condition
  Surface 58,                             !- Outside Boundary Condition Object
  NoSun,                                  !- Sun Exposure
  NoWind,                                 !- Wind Exposure
  ,                                       !- View Factor to Ground
  ,                                       !- Number of Vertices
  25, 20, 10.5,                           !- X,Y,Z Vertex 1 {m}
  25, 40, 10.5,                           !- X,Y,Z Vertex 2 {m}
  25, 40, 7,                              !- X,Y,Z Vertex 3 {m}
  25, 20, 7;                              !- X,Y,Z Vertex 4 {m}

BuildingSurface:Detailed,
  Surface 69,                             !- Name
  Wall,                                   !- Surface Type
  Alvenaria rebocada,                     !- Construction Name
  Zona P3_1_1,                            !- Zone Name
  P3_1_1,                                 !- Space Name
  Outdoors,                               !- Outside Boundary Condition
  ,                                       !- Outside Boundary Condition Object
  SunExposed,                             !- Sun Exposure
  WindExposed,                            !- Wind Exposure
  ,                                       !- View Factor to Ground
  ,                                       !- Number of Vertices
  25, 40, 10.5,                           !- X,Y,Z Vertex 1 {m}
  50, 40, 10.5,                           !- X,Y,Z Vertex 2 {m}
  50, 40, 7,                              !- X,Y,Z Vertex 3 {m}
  25, 40, 7;                              !- X,Y,Z Vertex 4 {m}

FenestrationSurface:Detailed,
  Sub Surface 13,                         !- Name
  Window,                                 !- Surface Type
  Vidro U3 SHGC0.4,                       !- Construction Name
  Surface 69,                             !- Building Surface Name
  ,                                       !- Outside Boundary Condition Object
  ,                                       !- View Factor to Ground
  ,                                       !- Frame and Divider Name
  ,                                       !- Multiplier
  ,                                       !- Number of Vertices
  49.9746, 40, 8.81413794430282,          !- X,Y,Z Vertex 1 {m}
  49.9746, 40, 7.762,                     !- X,Y,Z Vertex 2 {m}
  25.0254, 40, 7.762,                     !- X,Y,Z Vertex 3 {m}
  25.0254, 40, 8.81413794430282;          !- X,Y,Z Vertex 4 {m}

BuildingSurface:Detailed,
  Surface 70,                             !- Name
  Wall,                                   !- Surface Type
  Alvenaria rebocada,                     !- Construction Name
  Zona P3_1_1,                            !- Zone Name
  P3_1_1,                                 !- Space Name
  Outdoors,                               !- Outside Boundary Condition
  ,                                       !- Outside Boundary Condition Object
  SunExposed,                             !- Sun Exposure
  WindExposed,                            !- Wind Exposure
  ,                                       !- View Factor to Ground
  ,                                       !- Number of Vertices
  50, 40, 10.5,                           !- X,Y,Z Vertex 1 {m}
  50, 20, 10.5,                           !- X,Y,Z Vertex 2 {m}
  50, 20, 7,                              !- X,Y,Z Vertex 3 {m}
  50, 40, 7;                              !- X,Y,Z Vertex 4 {m}

FenestrationSurface:Detailed,
  Sub Surface 27,                         !- Name
  Window,                                 !- Surface Type
  Vidro U3 SHGC0.4,                       !- Construction Name
  Surface 70,                             !- Building Surface Name
  ,                                       !- Outside Boundary Condition Object
  ,                                       !- View Factor to Ground
  ,                                       !- Frame and Divider Name
  ,                                       !- Multiplier
  ,                                       !- Number of Vertices
  50, 20.0254, 8.81467379143023,          !- X,Y,Z Vertex 1 {m}
  50, 20.0254, 7.762,                     !- X,Y,Z Vertex 2 {m}
  50, 39.9746, 7.762,                     !- X,Y,Z Vertex 3 {m}
  50, 39.9746, 8.81467379143023;          !- X,Y,Z Vertex 4 {m}

BuildingSurface:Detailed,
  Surface 71,                             !- Name
  Wall,                                   !- Surface Type
  Alvenaria rebocada,                     !- Construction Name
  Zona P3_1_1,                            !- Zone Name
  P3_1_1,                                 !- Space Name
  Surface,                                !- Outside Boundary Condition
  Surface 63,                             !- Outside Boundary Condition Object
  NoSun,                                  !- Sun Exposure
  NoWind,                                 !- Wind Exposure
  ,                                       !- View Factor to Ground
  ,                                       !- Number of Vertices
  50, 20, 10.5,                           !- X,Y,Z Vertex 1 {m}
  25, 20, 10.5,                           !- X,Y,Z Vertex 2 {m}
  25, 20, 7,                              !- X,Y,Z Vertex 3 {m}
  50, 20, 7;                              !- X,Y,Z Vertex 4 {m}

BuildingSurface:Detailed,
  Surface 72,                             !- Name
  Ceiling,                                !- Surface Type
  Laje concreto,                          !- Construction Name
  Zona P3_1_1,                            !- Zone Name
  P3_1_1,                                 !- Space Name
  Surface,                                !- Outside Boundary Condition
  Surface 91,                             !- Outside Boundary Condition Object
  NoSun,                                  !- Sun Exposure
  NoWind,                                 !- Wind Exposure
  ,                                       !- View Factor to Ground
  ,                                       !- Number of Vertices
  50, 20, 10.5,                           !- X,Y,Z Vertex 1 {m}
  50, 40, 10.5,                           !- X,Y,Z Vertex 2 {m}
  25, 40, 10.5,                           !- X,Y,Z Vertex 3 {m}
  25, 20, 10.5;                           !- X,Y,Z Vertex 4 {m}

Lights,
  Lights 12,                              !- Name
  P3_1_1,                                 !- Zone or ZoneList or Space or SpaceList Name
  Iluminacao,                             !- Schedule Name
  Watts/Area,                             !- Design Level Calculation Method
  ,                                       !- Lighting Level {W}
  8,                                      !- Watts per Floor Area {W/m2}
  ,                                       !- Watts per Person {W/person}
  ,                                       !- Return Air Fraction
  ,                                       !- Fraction Radiant
  ,                                       !- Fraction Visible
  1,                                      !- Fraction Replaceable
  General;                                !- End-Use Subcategory

People,
  People 12,                              !- Name
  P3_1_1,                                 !- Zone or ZoneList or Space or SpaceList Name
  Ocupacao,                               !- Number of People Schedule Name
  People/Area,                            !- Number of People Calculation Method
  ,                                       !- Number of People
  0.08,                                   !- People per Floor Area {person/m2}
  ,                                       !- Floor Area per Person {m2/person}
  0.3,                                    !- Fraction Radiant
  ,                                       !- Sensible Heat Fraction
  Atividade sedentaria 120 W pessoa,      !- Activity Level Schedule Name
  ,                                       !- Carbon Dioxide Generation Rate {m3/s-W}
  ,                                       !- Enable ASHRAE 55 Comfort Warnings
  ,                                       !- Mean Radiant Temperature Calculation Type
  ,                                       !- Surface Name/Angle Factor List Name
  ,                                       !- Work Efficiency Schedule Name
  ClothingInsulationSchedule;             !- Clothing Insulation Calculation Method

ElectricEquipment,
  Electric Equipment 12,                  !- Name
  P3_1_1,                                 !- Zone or ZoneList or Space or SpaceList Name
  Computadores e demais equipamentos,     !- Schedule Name
  Watts/Area,                             !- Design Level Calculation Method
  ,                                       !- Design Level {W}
  12,                                     !- Watts per Floor Area {W/m2}
  ,                                       !- Watts per Person {W/person}
  ,                                       !- Fraction Latent
  ,                                       !- Fraction Radiant
  ,                                       !- Fraction Lost
  Computadores e cargas de escritorio;    !- End-Use Subcategory

ZoneInfiltration:DesignFlowRate,
  Space Infiltration Design Flow Rate 12, !- Name
  P3_1_1,                                 !- Zone or ZoneList or Space or SpaceList Name
  Always On Discrete,                     !- Schedule Name
  AirChanges/Hour,                        !- Design Flow Rate Calculation Method
  ,                                       !- Design Flow Rate {m3/s}
  ,                                       !- Flow Rate per Floor Area {m3/s-m2}
  ,                                       !- Flow Rate per Exterior Surface Area {m3/s-m2}
  0.15,                                   !- Air Changes per Hour {1/hr}
  ,                                       !- Constant Term Coefficient
  ,                                       !- Temperature Term Coefficient
  ,                                       !- Velocity Term Coefficient
  ,                                       !- Velocity Squared Term Coefficient
  Outdoor;                                !- Density Basis

ZoneControl:Thermostat,
  Zona P3_1_1 Thermostat,                 !- Name
  Zona P3_1_1,                            !- Zone or ZoneList Name
  Zona P3_1_1 Thermostat Schedule,        !- Control Type Schedule Name
  ThermostatSetpoint:DualSetpoint,        !- Control 1 Object Type
  Thermostat Setpoint Dual Setpoint 12,   !- Control 1 Name
  ,                                       !- Control 2 Object Type
  ,                                       !- Control 2 Name
  ,                                       !- Control 3 Object Type
  ,                                       !- Control 3 Name
  ,                                       !- Control 4 Object Type
  ,                                       !- Control 4 Name
  0;                                      !- Temperature Difference Between Cutout And Setpoint {deltaC}

Schedule:Compact,
  Zona P3_1_1 Thermostat Schedule,        !- Name
  Zona P3_1_1 Thermostat Schedule Type Limits, !- Schedule Type Limits Name
  Through: 12/31,                         !- Field 1
  For: AllDays,                           !- Field 2
  Until: 24:00,                           !- Field 3
  4;                                      !- Field 4

ScheduleTypeLimits,
  Zona P3_1_1 Thermostat Schedule Type Limits, !- Name
  0,                                      !- Lower Limit Value {BasedOnField A3}
  4,                                      !- Upper Limit Value {BasedOnField A3}
  DISCRETE;                               !- Numeric Type

ThermostatSetpoint:DualSetpoint,
  Thermostat Setpoint Dual Setpoint 12,   !- Name
  Aquecimento 20C,                        !- Heating Setpoint Temperature Schedule Name
  Resfriamento 24C;                       !- Cooling Setpoint Temperature Schedule Name

ZoneHVAC:EquipmentConnections,
  Zona P3_1_1,                            !- Zone Name
  Zona P3_1_1 Equipment List,             !- Zone Conditioning Equipment List Name
  Zona P3_1_1 Inlet Node List,            !- Zone Air Inlet Node or NodeList Name
  Zona P3_1_1 Exhaust Node List,          !- Zone Air Exhaust Node or NodeList Name
  Node 34;                                !- Zone Air Node Name

NodeList,
  Zona P3_1_1 Inlet Node List,            !- Name
  Node 36;                                !- Node Name 1

NodeList,
  Zona P3_1_1 Exhaust Node List,          !- Name
  Node 35;                                !- Node Name 1

ZoneHVAC:PackagedTerminalAirConditioner,
  Ar condicionado P3_1_1,                 !- Name
  HVAC 07-22,                             !- Availability Schedule Name
  Node 35,                                !- Air Inlet Node Name
  Node 36,                                !- Air Outlet Node Name
  OutdoorAir:Mixer,                       !- Outdoor Air Mixer Object Type
  Ar condicionado P3_1_1 OA Mixer,        !- Outdoor Air Mixer Name
  Autosize,                               !- Cooling Supply Air Flow Rate {m3/s}
  Autosize,                               !- Heating Supply Air Flow Rate {m3/s}
  Autosize,                               !- No Load Supply Air Flow Rate {m3/s}
  Yes,                                    !- No Load Supply Air Flow Rate Control Set To Low Speed
  0.45,                                   !- Cooling Outdoor Air Flow Rate {m3/s}
  0.45,                                   !- Heating Outdoor Air Flow Rate {m3/s}
  0.45,                                   !- No Load Outdoor Air Flow Rate {m3/s}
  Fan:ConstantVolume,                     !- Supply Air Fan Object Type
  Fan Constant Volume 12,                 !- Supply Air Fan Name
  Coil:Heating:Electric,                  !- Heating Coil Object Type
  Coil Heating Electric 12,               !- Heating Coil Name
  Coil:Cooling:DX:SingleSpeed,            !- Cooling Coil Object Type
  Coil Cooling DX Single Speed 12,        !- Cooling Coil Name
  DrawThrough,                            !- Fan Placement
  Always On Discrete;                     !- Supply Air Fan Operating Mode Schedule Name

OutdoorAir:Mixer,
  Ar condicionado P3_1_1 OA Mixer,        !- Name
  Ar condicionado P3_1_1 Mixed Air Node,  !- Mixed Air Node Name
  Ar condicionado P3_1_1 OA Node,         !- Outdoor Air Stream Node Name
  Ar condicionado P3_1_1 Relief Air Node, !- Relief Air Stream Node Name
  Node 35;                                !- Return Air Stream Node Name

OutdoorAir:NodeList,
  Ar condicionado P3_1_1 OA Node;         !- Node or NodeList Name 1

Fan:ConstantVolume,
  Fan Constant Volume 12,                 !- Name
  Always On Discrete,                     !- Availability Schedule Name
  0.6,                                    !- Fan Total Efficiency
  350,                                    !- Pressure Rise {Pa}
  AutoSize,                               !- Maximum Flow Rate {m3/s}
  0.9,                                    !- Motor Efficiency
  1,                                      !- Motor In Airstream Fraction
  Ar condicionado P3_1_1 Heating Coil Outlet Node, !- Air Inlet Node Name
  Node 36,                                !- Air Outlet Node Name
  ;                                       !- End-Use Subcategory

Coil:Heating:Electric,
  Coil Heating Electric 12,               !- Name
  Always On Discrete,                     !- Availability Schedule Name
  1,                                      !- Efficiency
  Autosize,                               !- Nominal Capacity {W}
  Ar condicionado P3_1_1 Cooling Coil Outlet Node, !- Air Inlet Node Name
  Ar condicionado P3_1_1 Heating Coil Outlet Node; !- Air Outlet Node Name

Curve:Biquadratic,
  Curve Biquadratic 23,                   !- Name
  0.942587793,                            !- Coefficient1 Constant
  0.009543347,                            !- Coefficient2 x
  0.00068377,                             !- Coefficient3 x**2
  -0.011042676,                           !- Coefficient4 y
  5.249e-06,                              !- Coefficient5 y**2
  -9.72e-06,                              !- Coefficient6 x*y
  17,                                     !- Minimum Value of x {BasedOnField A2}
  22,                                     !- Maximum Value of x {BasedOnField A2}
  13,                                     !- Minimum Value of y {BasedOnField A3}
  46;                                     !- Maximum Value of y {BasedOnField A3}

Curve:Quadratic,
  Curve Quadratic 34,                     !- Name
  0.8,                                    !- Coefficient1 Constant
  0.2,                                    !- Coefficient2 x
  0,                                      !- Coefficient3 x**2
  0.5,                                    !- Minimum Value of x {BasedOnField A2}
  1.5;                                    !- Maximum Value of x {BasedOnField A2}

Curve:Biquadratic,
  Curve Biquadratic 24,                   !- Name
  0.342414409,                            !- Coefficient1 Constant
  0.034885008,                            !- Coefficient2 x
  -0.0006237,                             !- Coefficient3 x**2
  0.004977216,                            !- Coefficient4 y
  0.000437951,                            !- Coefficient5 y**2
  -0.000728028,                           !- Coefficient6 x*y
  17,                                     !- Minimum Value of x {BasedOnField A2}
  22,                                     !- Maximum Value of x {BasedOnField A2}
  13,                                     !- Minimum Value of y {BasedOnField A3}
  46;                                     !- Maximum Value of y {BasedOnField A3}

Curve:Quadratic,
  Curve Quadratic 35,                     !- Name
  1.1552,                                 !- Coefficient1 Constant
  -0.1808,                                !- Coefficient2 x
  0.0256,                                 !- Coefficient3 x**2
  0.5,                                    !- Minimum Value of x {BasedOnField A2}
  1.5;                                    !- Maximum Value of x {BasedOnField A2}

Curve:Quadratic,
  Curve Quadratic 36,                     !- Name
  0.85,                                   !- Coefficient1 Constant
  0.15,                                   !- Coefficient2 x
  0,                                      !- Coefficient3 x**2
  0,                                      !- Minimum Value of x {BasedOnField A2}
  1;                                      !- Maximum Value of x {BasedOnField A2}

Coil:Cooling:DX:SingleSpeed,
  Coil Cooling DX Single Speed 12,        !- Name
  Always On Discrete,                     !- Availability Schedule Name
  Autosize,                               !- Gross Rated Total Cooling Capacity {W}
  Autosize,                               !- Gross Rated Sensible Heat Ratio
  3.2,                                    !- Gross Rated Cooling COP {W/W}
  Autosize,                               !- Rated Air Flow Rate {m3/s}
  773.3,                                  !- Rated Evaporator Fan Power Per Volume Flow Rate 2017 {W/(m3/s)}
  934.4,                                  !- Rated Evaporator Fan Power Per Volume Flow Rate 2023 {W/(m3/s)}
  Ar condicionado P3_1_1 Mixed Air Node,  !- Air Inlet Node Name
  Ar condicionado P3_1_1 Cooling Coil Outlet Node, !- Air Outlet Node Name
  Curve Biquadratic 23,                   !- Total Cooling Capacity Function of Temperature Curve Name
  Curve Quadratic 34,                     !- Total Cooling Capacity Function of Flow Fraction Curve Name
  Curve Biquadratic 24,                   !- Energy Input Ratio Function of Temperature Curve Name
  Curve Quadratic 35,                     !- Energy Input Ratio Function of Flow Fraction Curve Name
  Curve Quadratic 36,                     !- Part Load Fraction Correlation Curve Name
  -25,                                    !- Minimum Outdoor Dry-Bulb Temperature for Compressor Operation {C}
  0,                                      !- Nominal Time for Condensate Removal to Begin {s}
  0,                                      !- Ratio of Initial Moisture Evaporation Rate and Steady State Latent Capacity {dimensionless}
  0,                                      !- Maximum Cycling Rate {cycles/hr}
  0,                                      !- Latent Capacity Time Constant {s}
  ,                                       !- Condenser Air Inlet Node Name
  AirCooled,                              !- Condenser Type
  0.9,                                    !- Evaporative Condenser Effectiveness {dimensionless}
  Autosize,                               !- Evaporative Condenser Air Flow Rate {m3/s}
  Autosize,                               !- Evaporative Condenser Pump Rated Power Consumption {W}
  0,                                      !- Crankcase Heater Capacity {W}
  ,                                       !- Crankcase Heater Capacity Function of Temperature Curve Name
  10,                                     !- Maximum Outdoor Dry-Bulb Temperature for Crankcase Heater Operation {C}
  ,                                       !- Supply Water Storage Tank Name
  ,                                       !- Condensate Collection Water Storage Tank Name
  0,                                      !- Basin Heater Capacity {W/K}
  2;                                      !- Basin Heater Setpoint Temperature {C}

ZoneHVAC:EquipmentList,
  Zona P3_1_1 Equipment List,             !- Name
  SequentialLoad,                         !- Load Distribution Scheme
  ZoneHVAC:PackagedTerminalAirConditioner, !- Zone Equipment Object Type 1
  Ar condicionado P3_1_1,                 !- Zone Equipment Name 1
  1,                                      !- Zone Equipment Cooling Sequence 1
  1,                                      !- Zone Equipment Heating or No-Load Sequence 1
  ,                                       !- Zone Equipment Sequential Cooling Fraction Schedule Name 1
  ;                                       !- Zone Equipment Sequential Heating Fraction Schedule Name 1

Sizing:Zone,
  Zona P3_1_1,                            !- Zone or ZoneList Name
  SupplyAirTemperature,                   !- Zone Cooling Design Supply Air Temperature Input Method
  14,                                     !- Zone Cooling Design Supply Air Temperature {C}
  11.11,                                  !- Zone Cooling Design Supply Air Temperature Difference {deltaC}
  SupplyAirTemperature,                   !- Zone Heating Design Supply Air Temperature Input Method
  40,                                     !- Zone Heating Design Supply Air Temperature {C}
  11.11,                                  !- Zone Heating Design Supply Air Temperature Difference {deltaC}
  0.0085,                                 !- Zone Cooling Design Supply Air Humidity Ratio {kgWater/kgDryAir}
  0.008,                                  !- Zone Heating Design Supply Air Humidity Ratio {kgWater/kgDryAir}
  Design Specification Outdoor Air 12,    !- Design Specification Outdoor Air Object Name
  ,                                       !- Zone Heating Sizing Factor
  ,                                       !- Zone Cooling Sizing Factor
  DesignDay,                              !- Cooling Design Air Flow Method
  0,                                      !- Cooling Design Air Flow Rate {m3/s}
  0.000762,                               !- Cooling Minimum Air Flow per Zone Floor Area {m3/s-m2}
  0,                                      !- Cooling Minimum Air Flow {m3/s}
  0,                                      !- Cooling Minimum Air Flow Fraction
  DesignDay,                              !- Heating Design Air Flow Method
  0,                                      !- Heating Design Air Flow Rate {m3/s}
  0.002032,                               !- Heating Maximum Air Flow per Zone Floor Area {m3/s-m2}
  0.1415762,                              !- Heating Maximum Air Flow {m3/s}
  0.3,                                    !- Heating Maximum Air Flow Fraction
  ,                                       !- Design Specification Zone Air Distribution Object Name
  No,                                     !- Account for Dedicated Outdoor Air System
  ,                                       !- Dedicated Outdoor Air System Control Strategy
  ,                                       !- Dedicated Outdoor Air Low Setpoint Temperature for Design {C}
  ,                                       !- Dedicated Outdoor Air High Setpoint Temperature for Design {C}
  Sensible Load Only No Latent Load,      !- Zone Load Sizing Method
  HumidityRatioDifference,                !- Zone Latent Cooling Design Supply Air Humidity Ratio Input Method
  ,                                       !- Zone Dehumidification Design Supply Air Humidity Ratio {kgWater/kgDryAir}
  0.005,                                  !- Zone Cooling Design Supply Air Humidity Ratio Difference {kgWater/kgDryAir}
  HumidityRatioDifference,                !- Zone Latent Heating Design Supply Air Humidity Ratio Input Method
  ,                                       !- Zone Humidification Design Supply Air Humidity Ratio {kgWater/kgDryAir}
  0.005,                                  !- Zone Humidification Design Supply Air Humidity Ratio Difference {kgWater/kgDryAir}
  ,                                       !- Zone Humidistat Dehumidification Set Point Schedule Name
  ,                                       !- Zone Humidistat Humidification Set Point Schedule Name
  Coincident,                             !- Type of Space Sum to Use
  None,                                   !- Heating Coil Sizing Method
  1;                                      !- Maximum Heating Capacity To Cooling Load Sizing Ratio {W/W}

DesignSpecification:OutdoorAir,
  Design Specification Outdoor Air 12,    !- Name
  Sum,                                    !- Outdoor Air Method
  0.0075,                                 !- Outdoor Air Flow per Person {m3/s-person}
  0.0003,                                 !- Outdoor Air Flow per Zone Floor Area {m3/s-m2}
  0,                                      !- Outdoor Air Flow per Zone {m3/s}
  0;                                      !- Outdoor Air Flow Air Changes per Hour {1/hr}

Zone,
  Zona P4_0_0,                            !- Name
  ,                                       !- Direction of Relative North {deg}
  0,                                      !- X Origin {m}
  0,                                      !- Y Origin {m}
  0,                                      !- Z Origin {m}
  ,                                       !- Type
  1,                                      !- Multiplier
  ,                                       !- Ceiling Height {m}
  ,                                       !- Volume {m3}
  ,                                       !- Floor Area {m2}
  ,                                       !- Zone Inside Convection Algorithm
  ,                                       !- Zone Outside Convection Algorithm
  Yes;                                    !- Part of Total Floor Area

Space,
  P4_0_0,                                 !- Name
  Zona P4_0_0,                            !- Zone Name
  ,                                       !- Ceiling Height {m}
  ,                                       !- Volume {m3}
  ;                                       !- Floor Area {m2}

BuildingSurface:Detailed,
  Surface 73,                             !- Name
  Floor,                                  !- Surface Type
  Laje concreto,                          !- Construction Name
  Zona P4_0_0,                            !- Zone Name
  P4_0_0,                                 !- Space Name
  Surface,                                !- Outside Boundary Condition
  Surface 54,                             !- Outside Boundary Condition Object
  NoSun,                                  !- Sun Exposure
  NoWind,                                 !- Wind Exposure
  ,                                       !- View Factor to Ground
  ,                                       !- Number of Vertices
  0, 0, 10.5,                             !- X,Y,Z Vertex 1 {m}
  0, 20, 10.5,                            !- X,Y,Z Vertex 2 {m}
  25, 20, 10.5,                           !- X,Y,Z Vertex 3 {m}
  25, 0, 10.5;                            !- X,Y,Z Vertex 4 {m}

BuildingSurface:Detailed,
  Surface 74,                             !- Name
  Wall,                                   !- Surface Type
  Alvenaria rebocada,                     !- Construction Name
  Zona P4_0_0,                            !- Zone Name
  P4_0_0,                                 !- Space Name
  Outdoors,                               !- Outside Boundary Condition
  ,                                       !- Outside Boundary Condition Object
  SunExposed,                             !- Sun Exposure
  WindExposed,                            !- Wind Exposure
  ,                                       !- View Factor to Ground
  ,                                       !- Number of Vertices
  0, 0, 14,                               !- X,Y,Z Vertex 1 {m}
  0, 20, 14,                              !- X,Y,Z Vertex 2 {m}
  0, 20, 10.5,                            !- X,Y,Z Vertex 3 {m}
  0, 0, 10.5;                             !- X,Y,Z Vertex 4 {m}

FenestrationSurface:Detailed,
  Sub Surface 28,                         !- Name
  Window,                                 !- Surface Type
  Vidro U3 SHGC0.4,                       !- Construction Name
  Surface 74,                             !- Building Surface Name
  ,                                       !- Outside Boundary Condition Object
  ,                                       !- View Factor to Ground
  ,                                       !- Frame and Divider Name
  ,                                       !- Multiplier
  ,                                       !- Number of Vertices
  0, 19.9746, 12.3146737914302,           !- X,Y,Z Vertex 1 {m}
  0, 19.9746, 11.262,                     !- X,Y,Z Vertex 2 {m}
  0, 0.0253999999999976, 11.262,          !- X,Y,Z Vertex 3 {m}
  0, 0.0253999999999976, 12.3146737914302; !- X,Y,Z Vertex 4 {m}

BuildingSurface:Detailed,
  Surface 75,                             !- Name
  Wall,                                   !- Surface Type
  Alvenaria rebocada,                     !- Construction Name
  Zona P4_0_0,                            !- Zone Name
  P4_0_0,                                 !- Space Name
  Surface,                                !- Outside Boundary Condition
  Surface 83,                             !- Outside Boundary Condition Object
  NoSun,                                  !- Sun Exposure
  NoWind,                                 !- Wind Exposure
  ,                                       !- View Factor to Ground
  ,                                       !- Number of Vertices
  0, 20, 14,                              !- X,Y,Z Vertex 1 {m}
  25, 20, 14,                             !- X,Y,Z Vertex 2 {m}
  25, 20, 10.5,                           !- X,Y,Z Vertex 3 {m}
  0, 20, 10.5;                            !- X,Y,Z Vertex 4 {m}

BuildingSurface:Detailed,
  Surface 76,                             !- Name
  Wall,                                   !- Surface Type
  Alvenaria rebocada,                     !- Construction Name
  Zona P4_0_0,                            !- Zone Name
  P4_0_0,                                 !- Space Name
  Surface,                                !- Outside Boundary Condition
  Surface 86,                             !- Outside Boundary Condition Object
  NoSun,                                  !- Sun Exposure
  NoWind,                                 !- Wind Exposure
  ,                                       !- View Factor to Ground
  ,                                       !- Number of Vertices
  25, 20, 14,                             !- X,Y,Z Vertex 1 {m}
  25, 0, 14,                              !- X,Y,Z Vertex 2 {m}
  25, 0, 10.5,                            !- X,Y,Z Vertex 3 {m}
  25, 20, 10.5;                           !- X,Y,Z Vertex 4 {m}

BuildingSurface:Detailed,
  Surface 77,                             !- Name
  Wall,                                   !- Surface Type
  Alvenaria rebocada,                     !- Construction Name
  Zona P4_0_0,                            !- Zone Name
  P4_0_0,                                 !- Space Name
  Outdoors,                               !- Outside Boundary Condition
  ,                                       !- Outside Boundary Condition Object
  SunExposed,                             !- Sun Exposure
  WindExposed,                            !- Wind Exposure
  ,                                       !- View Factor to Ground
  ,                                       !- Number of Vertices
  25, 0, 14,                              !- X,Y,Z Vertex 1 {m}
  0, 0, 14,                               !- X,Y,Z Vertex 2 {m}
  0, 0, 10.5,                             !- X,Y,Z Vertex 3 {m}
  25, 0, 10.5;                            !- X,Y,Z Vertex 4 {m}

FenestrationSurface:Detailed,
  Sub Surface 29,                         !- Name
  Window,                                 !- Surface Type
  Vidro U3 SHGC0.4,                       !- Construction Name
  Surface 77,                             !- Building Surface Name
  ,                                       !- Outside Boundary Condition Object
  ,                                       !- View Factor to Ground
  ,                                       !- Frame and Divider Name
  ,                                       !- Multiplier
  ,                                       !- Number of Vertices
  0.0254, 0, 12.3141379443028,            !- X,Y,Z Vertex 1 {m}
  0.0254, 0, 11.262,                      !- X,Y,Z Vertex 2 {m}
  24.9746, 0, 11.262,                     !- X,Y,Z Vertex 3 {m}
  24.9746, 0, 12.3141379443028;           !- X,Y,Z Vertex 4 {m}

BuildingSurface:Detailed,
  Surface 78,                             !- Name
  Roof,                                   !- Surface Type
  Cobertura isolada,                      !- Construction Name
  Zona P4_0_0,                            !- Zone Name
  P4_0_0,                                 !- Space Name
  Outdoors,                               !- Outside Boundary Condition
  ,                                       !- Outside Boundary Condition Object
  SunExposed,                             !- Sun Exposure
  WindExposed,                            !- Wind Exposure
  ,                                       !- View Factor to Ground
  ,                                       !- Number of Vertices
  25, 0, 14,                              !- X,Y,Z Vertex 1 {m}
  25, 20, 14,                             !- X,Y,Z Vertex 2 {m}
  0, 20, 14,                              !- X,Y,Z Vertex 3 {m}
  0, 0, 14;                               !- X,Y,Z Vertex 4 {m}

Lights,
  Lights 13,                              !- Name
  P4_0_0,                                 !- Zone or ZoneList or Space or SpaceList Name
  Iluminacao,                             !- Schedule Name
  Watts/Area,                             !- Design Level Calculation Method
  ,                                       !- Lighting Level {W}
  8,                                      !- Watts per Floor Area {W/m2}
  ,                                       !- Watts per Person {W/person}
  ,                                       !- Return Air Fraction
  ,                                       !- Fraction Radiant
  ,                                       !- Fraction Visible
  1,                                      !- Fraction Replaceable
  General;                                !- End-Use Subcategory

People,
  People 13,                              !- Name
  P4_0_0,                                 !- Zone or ZoneList or Space or SpaceList Name
  Ocupacao,                               !- Number of People Schedule Name
  People/Area,                            !- Number of People Calculation Method
  ,                                       !- Number of People
  0.08,                                   !- People per Floor Area {person/m2}
  ,                                       !- Floor Area per Person {m2/person}
  0.3,                                    !- Fraction Radiant
  ,                                       !- Sensible Heat Fraction
  Atividade sedentaria 120 W pessoa,      !- Activity Level Schedule Name
  ,                                       !- Carbon Dioxide Generation Rate {m3/s-W}
  ,                                       !- Enable ASHRAE 55 Comfort Warnings
  ,                                       !- Mean Radiant Temperature Calculation Type
  ,                                       !- Surface Name/Angle Factor List Name
  ,                                       !- Work Efficiency Schedule Name
  ClothingInsulationSchedule;             !- Clothing Insulation Calculation Method

ElectricEquipment,
  Electric Equipment 13,                  !- Name
  P4_0_0,                                 !- Zone or ZoneList or Space or SpaceList Name
  Computadores e demais equipamentos,     !- Schedule Name
  Watts/Area,                             !- Design Level Calculation Method
  ,                                       !- Design Level {W}
  12,                                     !- Watts per Floor Area {W/m2}
  ,                                       !- Watts per Person {W/person}
  ,                                       !- Fraction Latent
  ,                                       !- Fraction Radiant
  ,                                       !- Fraction Lost
  Computadores e cargas de escritorio;    !- End-Use Subcategory

ZoneInfiltration:DesignFlowRate,
  Space Infiltration Design Flow Rate 13, !- Name
  P4_0_0,                                 !- Zone or ZoneList or Space or SpaceList Name
  Always On Discrete,                     !- Schedule Name
  AirChanges/Hour,                        !- Design Flow Rate Calculation Method
  ,                                       !- Design Flow Rate {m3/s}
  ,                                       !- Flow Rate per Floor Area {m3/s-m2}
  ,                                       !- Flow Rate per Exterior Surface Area {m3/s-m2}
  0.15,                                   !- Air Changes per Hour {1/hr}
  ,                                       !- Constant Term Coefficient
  ,                                       !- Temperature Term Coefficient
  ,                                       !- Velocity Term Coefficient
  ,                                       !- Velocity Squared Term Coefficient
  Outdoor;                                !- Density Basis

ZoneControl:Thermostat,
  Zona P4_0_0 Thermostat,                 !- Name
  Zona P4_0_0,                            !- Zone or ZoneList Name
  Zona P4_0_0 Thermostat Schedule,        !- Control Type Schedule Name
  ThermostatSetpoint:DualSetpoint,        !- Control 1 Object Type
  Thermostat Setpoint Dual Setpoint 13,   !- Control 1 Name
  ,                                       !- Control 2 Object Type
  ,                                       !- Control 2 Name
  ,                                       !- Control 3 Object Type
  ,                                       !- Control 3 Name
  ,                                       !- Control 4 Object Type
  ,                                       !- Control 4 Name
  0;                                      !- Temperature Difference Between Cutout And Setpoint {deltaC}

Schedule:Compact,
  Zona P4_0_0 Thermostat Schedule,        !- Name
  Zona P4_0_0 Thermostat Schedule Type Limits, !- Schedule Type Limits Name
  Through: 12/31,                         !- Field 1
  For: AllDays,                           !- Field 2
  Until: 24:00,                           !- Field 3
  4;                                      !- Field 4

ScheduleTypeLimits,
  Zona P4_0_0 Thermostat Schedule Type Limits, !- Name
  0,                                      !- Lower Limit Value {BasedOnField A3}
  4,                                      !- Upper Limit Value {BasedOnField A3}
  DISCRETE;                               !- Numeric Type

ThermostatSetpoint:DualSetpoint,
  Thermostat Setpoint Dual Setpoint 13,   !- Name
  Aquecimento 20C,                        !- Heating Setpoint Temperature Schedule Name
  Resfriamento 24C;                       !- Cooling Setpoint Temperature Schedule Name

ZoneHVAC:EquipmentConnections,
  Zona P4_0_0,                            !- Zone Name
  Zona P4_0_0 Equipment List,             !- Zone Conditioning Equipment List Name
  Zona P4_0_0 Inlet Node List,            !- Zone Air Inlet Node or NodeList Name
  Zona P4_0_0 Exhaust Node List,          !- Zone Air Exhaust Node or NodeList Name
  Node 37;                                !- Zone Air Node Name

NodeList,
  Zona P4_0_0 Inlet Node List,            !- Name
  Node 39;                                !- Node Name 1

NodeList,
  Zona P4_0_0 Exhaust Node List,          !- Name
  Node 38;                                !- Node Name 1

ZoneHVAC:PackagedTerminalAirConditioner,
  Ar condicionado P4_0_0,                 !- Name
  HVAC 07-22,                             !- Availability Schedule Name
  Node 38,                                !- Air Inlet Node Name
  Node 39,                                !- Air Outlet Node Name
  OutdoorAir:Mixer,                       !- Outdoor Air Mixer Object Type
  Ar condicionado P4_0_0 OA Mixer,        !- Outdoor Air Mixer Name
  Autosize,                               !- Cooling Supply Air Flow Rate {m3/s}
  Autosize,                               !- Heating Supply Air Flow Rate {m3/s}
  Autosize,                               !- No Load Supply Air Flow Rate {m3/s}
  Yes,                                    !- No Load Supply Air Flow Rate Control Set To Low Speed
  0.45,                                   !- Cooling Outdoor Air Flow Rate {m3/s}
  0.45,                                   !- Heating Outdoor Air Flow Rate {m3/s}
  0.45,                                   !- No Load Outdoor Air Flow Rate {m3/s}
  Fan:ConstantVolume,                     !- Supply Air Fan Object Type
  Fan Constant Volume 13,                 !- Supply Air Fan Name
  Coil:Heating:Electric,                  !- Heating Coil Object Type
  Coil Heating Electric 13,               !- Heating Coil Name
  Coil:Cooling:DX:SingleSpeed,            !- Cooling Coil Object Type
  Coil Cooling DX Single Speed 13,        !- Cooling Coil Name
  DrawThrough,                            !- Fan Placement
  Always On Discrete;                     !- Supply Air Fan Operating Mode Schedule Name

OutdoorAir:Mixer,
  Ar condicionado P4_0_0 OA Mixer,        !- Name
  Ar condicionado P4_0_0 Mixed Air Node,  !- Mixed Air Node Name
  Ar condicionado P4_0_0 OA Node,         !- Outdoor Air Stream Node Name
  Ar condicionado P4_0_0 Relief Air Node, !- Relief Air Stream Node Name
  Node 38;                                !- Return Air Stream Node Name

OutdoorAir:NodeList,
  Ar condicionado P4_0_0 OA Node;         !- Node or NodeList Name 1

Fan:ConstantVolume,
  Fan Constant Volume 13,                 !- Name
  Always On Discrete,                     !- Availability Schedule Name
  0.6,                                    !- Fan Total Efficiency
  350,                                    !- Pressure Rise {Pa}
  AutoSize,                               !- Maximum Flow Rate {m3/s}
  0.9,                                    !- Motor Efficiency
  1,                                      !- Motor In Airstream Fraction
  Ar condicionado P4_0_0 Heating Coil Outlet Node, !- Air Inlet Node Name
  Node 39,                                !- Air Outlet Node Name
  ;                                       !- End-Use Subcategory

Coil:Heating:Electric,
  Coil Heating Electric 13,               !- Name
  Always On Discrete,                     !- Availability Schedule Name
  1,                                      !- Efficiency
  Autosize,                               !- Nominal Capacity {W}
  Ar condicionado P4_0_0 Cooling Coil Outlet Node, !- Air Inlet Node Name
  Ar condicionado P4_0_0 Heating Coil Outlet Node; !- Air Outlet Node Name

Curve:Biquadratic,
  Curve Biquadratic 25,                   !- Name
  0.942587793,                            !- Coefficient1 Constant
  0.009543347,                            !- Coefficient2 x
  0.00068377,                             !- Coefficient3 x**2
  -0.011042676,                           !- Coefficient4 y
  5.249e-06,                              !- Coefficient5 y**2
  -9.72e-06,                              !- Coefficient6 x*y
  17,                                     !- Minimum Value of x {BasedOnField A2}
  22,                                     !- Maximum Value of x {BasedOnField A2}
  13,                                     !- Minimum Value of y {BasedOnField A3}
  46;                                     !- Maximum Value of y {BasedOnField A3}

Curve:Quadratic,
  Curve Quadratic 37,                     !- Name
  0.8,                                    !- Coefficient1 Constant
  0.2,                                    !- Coefficient2 x
  0,                                      !- Coefficient3 x**2
  0.5,                                    !- Minimum Value of x {BasedOnField A2}
  1.5;                                    !- Maximum Value of x {BasedOnField A2}

Curve:Biquadratic,
  Curve Biquadratic 26,                   !- Name
  0.342414409,                            !- Coefficient1 Constant
  0.034885008,                            !- Coefficient2 x
  -0.0006237,                             !- Coefficient3 x**2
  0.004977216,                            !- Coefficient4 y
  0.000437951,                            !- Coefficient5 y**2
  -0.000728028,                           !- Coefficient6 x*y
  17,                                     !- Minimum Value of x {BasedOnField A2}
  22,                                     !- Maximum Value of x {BasedOnField A2}
  13,                                     !- Minimum Value of y {BasedOnField A3}
  46;                                     !- Maximum Value of y {BasedOnField A3}

Curve:Quadratic,
  Curve Quadratic 38,                     !- Name
  1.1552,                                 !- Coefficient1 Constant
  -0.1808,                                !- Coefficient2 x
  0.0256,                                 !- Coefficient3 x**2
  0.5,                                    !- Minimum Value of x {BasedOnField A2}
  1.5;                                    !- Maximum Value of x {BasedOnField A2}

Curve:Quadratic,
  Curve Quadratic 39,                     !- Name
  0.85,                                   !- Coefficient1 Constant
  0.15,                                   !- Coefficient2 x
  0,                                      !- Coefficient3 x**2
  0,                                      !- Minimum Value of x {BasedOnField A2}
  1;                                      !- Maximum Value of x {BasedOnField A2}

Coil:Cooling:DX:SingleSpeed,
  Coil Cooling DX Single Speed 13,        !- Name
  Always On Discrete,                     !- Availability Schedule Name
  Autosize,                               !- Gross Rated Total Cooling Capacity {W}
  Autosize,                               !- Gross Rated Sensible Heat Ratio
  3.2,                                    !- Gross Rated Cooling COP {W/W}
  Autosize,                               !- Rated Air Flow Rate {m3/s}
  773.3,                                  !- Rated Evaporator Fan Power Per Volume Flow Rate 2017 {W/(m3/s)}
  934.4,                                  !- Rated Evaporator Fan Power Per Volume Flow Rate 2023 {W/(m3/s)}
  Ar condicionado P4_0_0 Mixed Air Node,  !- Air Inlet Node Name
  Ar condicionado P4_0_0 Cooling Coil Outlet Node, !- Air Outlet Node Name
  Curve Biquadratic 25,                   !- Total Cooling Capacity Function of Temperature Curve Name
  Curve Quadratic 37,                     !- Total Cooling Capacity Function of Flow Fraction Curve Name
  Curve Biquadratic 26,                   !- Energy Input Ratio Function of Temperature Curve Name
  Curve Quadratic 38,                     !- Energy Input Ratio Function of Flow Fraction Curve Name
  Curve Quadratic 39,                     !- Part Load Fraction Correlation Curve Name
  -25,                                    !- Minimum Outdoor Dry-Bulb Temperature for Compressor Operation {C}
  0,                                      !- Nominal Time for Condensate Removal to Begin {s}
  0,                                      !- Ratio of Initial Moisture Evaporation Rate and Steady State Latent Capacity {dimensionless}
  0,                                      !- Maximum Cycling Rate {cycles/hr}
  0,                                      !- Latent Capacity Time Constant {s}
  ,                                       !- Condenser Air Inlet Node Name
  AirCooled,                              !- Condenser Type
  0.9,                                    !- Evaporative Condenser Effectiveness {dimensionless}
  Autosize,                               !- Evaporative Condenser Air Flow Rate {m3/s}
  Autosize,                               !- Evaporative Condenser Pump Rated Power Consumption {W}
  0,                                      !- Crankcase Heater Capacity {W}
  ,                                       !- Crankcase Heater Capacity Function of Temperature Curve Name
  10,                                     !- Maximum Outdoor Dry-Bulb Temperature for Crankcase Heater Operation {C}
  ,                                       !- Supply Water Storage Tank Name
  ,                                       !- Condensate Collection Water Storage Tank Name
  0,                                      !- Basin Heater Capacity {W/K}
  2;                                      !- Basin Heater Setpoint Temperature {C}

ZoneHVAC:EquipmentList,
  Zona P4_0_0 Equipment List,             !- Name
  SequentialLoad,                         !- Load Distribution Scheme
  ZoneHVAC:PackagedTerminalAirConditioner, !- Zone Equipment Object Type 1
  Ar condicionado P4_0_0,                 !- Zone Equipment Name 1
  1,                                      !- Zone Equipment Cooling Sequence 1
  1,                                      !- Zone Equipment Heating or No-Load Sequence 1
  ,                                       !- Zone Equipment Sequential Cooling Fraction Schedule Name 1
  ;                                       !- Zone Equipment Sequential Heating Fraction Schedule Name 1

Sizing:Zone,
  Zona P4_0_0,                            !- Zone or ZoneList Name
  SupplyAirTemperature,                   !- Zone Cooling Design Supply Air Temperature Input Method
  14,                                     !- Zone Cooling Design Supply Air Temperature {C}
  11.11,                                  !- Zone Cooling Design Supply Air Temperature Difference {deltaC}
  SupplyAirTemperature,                   !- Zone Heating Design Supply Air Temperature Input Method
  40,                                     !- Zone Heating Design Supply Air Temperature {C}
  11.11,                                  !- Zone Heating Design Supply Air Temperature Difference {deltaC}
  0.0085,                                 !- Zone Cooling Design Supply Air Humidity Ratio {kgWater/kgDryAir}
  0.008,                                  !- Zone Heating Design Supply Air Humidity Ratio {kgWater/kgDryAir}
  Design Specification Outdoor Air 13,    !- Design Specification Outdoor Air Object Name
  ,                                       !- Zone Heating Sizing Factor
  ,                                       !- Zone Cooling Sizing Factor
  DesignDay,                              !- Cooling Design Air Flow Method
  0,                                      !- Cooling Design Air Flow Rate {m3/s}
  0.000762,                               !- Cooling Minimum Air Flow per Zone Floor Area {m3/s-m2}
  0,                                      !- Cooling Minimum Air Flow {m3/s}
  0,                                      !- Cooling Minimum Air Flow Fraction
  DesignDay,                              !- Heating Design Air Flow Method
  0,                                      !- Heating Design Air Flow Rate {m3/s}
  0.002032,                               !- Heating Maximum Air Flow per Zone Floor Area {m3/s-m2}
  0.1415762,                              !- Heating Maximum Air Flow {m3/s}
  0.3,                                    !- Heating Maximum Air Flow Fraction
  ,                                       !- Design Specification Zone Air Distribution Object Name
  No,                                     !- Account for Dedicated Outdoor Air System
  ,                                       !- Dedicated Outdoor Air System Control Strategy
  ,                                       !- Dedicated Outdoor Air Low Setpoint Temperature for Design {C}
  ,                                       !- Dedicated Outdoor Air High Setpoint Temperature for Design {C}
  Sensible Load Only No Latent Load,      !- Zone Load Sizing Method
  HumidityRatioDifference,                !- Zone Latent Cooling Design Supply Air Humidity Ratio Input Method
  ,                                       !- Zone Dehumidification Design Supply Air Humidity Ratio {kgWater/kgDryAir}
  0.005,                                  !- Zone Cooling Design Supply Air Humidity Ratio Difference {kgWater/kgDryAir}
  HumidityRatioDifference,                !- Zone Latent Heating Design Supply Air Humidity Ratio Input Method
  ,                                       !- Zone Humidification Design Supply Air Humidity Ratio {kgWater/kgDryAir}
  0.005,                                  !- Zone Humidification Design Supply Air Humidity Ratio Difference {kgWater/kgDryAir}
  ,                                       !- Zone Humidistat Dehumidification Set Point Schedule Name
  ,                                       !- Zone Humidistat Humidification Set Point Schedule Name
  Coincident,                             !- Type of Space Sum to Use
  None,                                   !- Heating Coil Sizing Method
  1;                                      !- Maximum Heating Capacity To Cooling Load Sizing Ratio {W/W}

DesignSpecification:OutdoorAir,
  Design Specification Outdoor Air 13,    !- Name
  Sum,                                    !- Outdoor Air Method
  0.0075,                                 !- Outdoor Air Flow per Person {m3/s-person}
  0.0003,                                 !- Outdoor Air Flow per Zone Floor Area {m3/s-m2}
  0,                                      !- Outdoor Air Flow per Zone {m3/s}
  0;                                      !- Outdoor Air Flow Air Changes per Hour {1/hr}

Zone,
  Zona P4_0_1,                            !- Name
  ,                                       !- Direction of Relative North {deg}
  0,                                      !- X Origin {m}
  0,                                      !- Y Origin {m}
  0,                                      !- Z Origin {m}
  ,                                       !- Type
  1,                                      !- Multiplier
  ,                                       !- Ceiling Height {m}
  ,                                       !- Volume {m3}
  ,                                       !- Floor Area {m2}
  ,                                       !- Zone Inside Convection Algorithm
  ,                                       !- Zone Outside Convection Algorithm
  Yes;                                    !- Part of Total Floor Area

Space,
  P4_0_1,                                 !- Name
  Zona P4_0_1,                            !- Zone Name
  ,                                       !- Ceiling Height {m}
  ,                                       !- Volume {m3}
  ;                                       !- Floor Area {m2}

BuildingSurface:Detailed,
  Surface 79,                             !- Name
  Floor,                                  !- Surface Type
  Laje concreto,                          !- Construction Name
  Zona P4_0_1,                            !- Zone Name
  P4_0_1,                                 !- Space Name
  Surface,                                !- Outside Boundary Condition
  Surface 60,                             !- Outside Boundary Condition Object
  NoSun,                                  !- Sun Exposure
  NoWind,                                 !- Wind Exposure
  ,                                       !- View Factor to Ground
  ,                                       !- Number of Vertices
  0, 20, 10.5,                            !- X,Y,Z Vertex 1 {m}
  0, 40, 10.5,                            !- X,Y,Z Vertex 2 {m}
  25, 40, 10.5,                           !- X,Y,Z Vertex 3 {m}
  25, 20, 10.5;                           !- X,Y,Z Vertex 4 {m}

BuildingSurface:Detailed,
  Surface 80,                             !- Name
  Wall,                                   !- Surface Type
  Alvenaria rebocada,                     !- Construction Name
  Zona P4_0_1,                            !- Zone Name
  P4_0_1,                                 !- Space Name
  Outdoors,                               !- Outside Boundary Condition
  ,                                       !- Outside Boundary Condition Object
  SunExposed,                             !- Sun Exposure
  WindExposed,                            !- Wind Exposure
  ,                                       !- View Factor to Ground
  ,                                       !- Number of Vertices
  0, 20, 14,                              !- X,Y,Z Vertex 1 {m}
  0, 40, 14,                              !- X,Y,Z Vertex 2 {m}
  0, 40, 10.5,                            !- X,Y,Z Vertex 3 {m}
  0, 20, 10.5;                            !- X,Y,Z Vertex 4 {m}

FenestrationSurface:Detailed,
  Sub Surface 23,                         !- Name
  Window,                                 !- Surface Type
  Vidro U3 SHGC0.4,                       !- Construction Name
  Surface 80,                             !- Building Surface Name
  ,                                       !- Outside Boundary Condition Object
  ,                                       !- View Factor to Ground
  ,                                       !- Frame and Divider Name
  ,                                       !- Multiplier
  ,                                       !- Number of Vertices
  0, 39.9746, 12.3146737914302,           !- X,Y,Z Vertex 1 {m}
  0, 39.9746, 11.262,                     !- X,Y,Z Vertex 2 {m}
  0, 20.0254, 11.262,                     !- X,Y,Z Vertex 3 {m}
  0, 20.0254, 12.3146737914302;           !- X,Y,Z Vertex 4 {m}

BuildingSurface:Detailed,
  Surface 81,                             !- Name
  Wall,                                   !- Surface Type
  Alvenaria rebocada,                     !- Construction Name
  Zona P4_0_1,                            !- Zone Name
  P4_0_1,                                 !- Space Name
  Outdoors,                               !- Outside Boundary Condition
  ,                                       !- Outside Boundary Condition Object
  SunExposed,                             !- Sun Exposure
  WindExposed,                            !- Wind Exposure
  ,                                       !- View Factor to Ground
  ,                                       !- Number of Vertices
  0, 40, 14,                              !- X,Y,Z Vertex 1 {m}
  25, 40, 14,                             !- X,Y,Z Vertex 2 {m}
  25, 40, 10.5,                           !- X,Y,Z Vertex 3 {m}
  0, 40, 10.5;                            !- X,Y,Z Vertex 4 {m}

FenestrationSurface:Detailed,
  Sub Surface 2,                          !- Name
  Window,                                 !- Surface Type
  Vidro U3 SHGC0.4,                       !- Construction Name
  Surface 81,                             !- Building Surface Name
  ,                                       !- Outside Boundary Condition Object
  ,                                       !- View Factor to Ground
  ,                                       !- Frame and Divider Name
  ,                                       !- Multiplier
  ,                                       !- Number of Vertices
  24.9746, 40, 12.3141379443028,          !- X,Y,Z Vertex 1 {m}
  24.9746, 40, 11.262,                    !- X,Y,Z Vertex 2 {m}
  0.0253999999999976, 40, 11.262,         !- X,Y,Z Vertex 3 {m}
  0.0253999999999976, 40, 12.3141379443028; !- X,Y,Z Vertex 4 {m}

BuildingSurface:Detailed,
  Surface 82,                             !- Name
  Wall,                                   !- Surface Type
  Alvenaria rebocada,                     !- Construction Name
  Zona P4_0_1,                            !- Zone Name
  P4_0_1,                                 !- Space Name
  Surface,                                !- Outside Boundary Condition
  Surface 92,                             !- Outside Boundary Condition Object
  NoSun,                                  !- Sun Exposure
  NoWind,                                 !- Wind Exposure
  ,                                       !- View Factor to Ground
  ,                                       !- Number of Vertices
  25, 40, 14,                             !- X,Y,Z Vertex 1 {m}
  25, 20, 14,                             !- X,Y,Z Vertex 2 {m}
  25, 20, 10.5,                           !- X,Y,Z Vertex 3 {m}
  25, 40, 10.5;                           !- X,Y,Z Vertex 4 {m}

BuildingSurface:Detailed,
  Surface 83,                             !- Name
  Wall,                                   !- Surface Type
  Alvenaria rebocada,                     !- Construction Name
  Zona P4_0_1,                            !- Zone Name
  P4_0_1,                                 !- Space Name
  Surface,                                !- Outside Boundary Condition
  Surface 75,                             !- Outside Boundary Condition Object
  NoSun,                                  !- Sun Exposure
  NoWind,                                 !- Wind Exposure
  ,                                       !- View Factor to Ground
  ,                                       !- Number of Vertices
  25, 20, 14,                             !- X,Y,Z Vertex 1 {m}
  0, 20, 14,                              !- X,Y,Z Vertex 2 {m}
  0, 20, 10.5,                            !- X,Y,Z Vertex 3 {m}
  25, 20, 10.5;                           !- X,Y,Z Vertex 4 {m}

BuildingSurface:Detailed,
  Surface 84,                             !- Name
  Roof,                                   !- Surface Type
  Cobertura isolada,                      !- Construction Name
  Zona P4_0_1,                            !- Zone Name
  P4_0_1,                                 !- Space Name
  Outdoors,                               !- Outside Boundary Condition
  ,                                       !- Outside Boundary Condition Object
  SunExposed,                             !- Sun Exposure
  WindExposed,                            !- Wind Exposure
  ,                                       !- View Factor to Ground
  ,                                       !- Number of Vertices
  25, 20, 14,                             !- X,Y,Z Vertex 1 {m}
  25, 40, 14,                             !- X,Y,Z Vertex 2 {m}
  0, 40, 14,                              !- X,Y,Z Vertex 3 {m}
  0, 20, 14;                              !- X,Y,Z Vertex 4 {m}

Lights,
  Lights 14,                              !- Name
  P4_0_1,                                 !- Zone or ZoneList or Space or SpaceList Name
  Iluminacao,                             !- Schedule Name
  Watts/Area,                             !- Design Level Calculation Method
  ,                                       !- Lighting Level {W}
  8,                                      !- Watts per Floor Area {W/m2}
  ,                                       !- Watts per Person {W/person}
  ,                                       !- Return Air Fraction
  ,                                       !- Fraction Radiant
  ,                                       !- Fraction Visible
  1,                                      !- Fraction Replaceable
  General;                                !- End-Use Subcategory

People,
  People 14,                              !- Name
  P4_0_1,                                 !- Zone or ZoneList or Space or SpaceList Name
  Ocupacao,                               !- Number of People Schedule Name
  People/Area,                            !- Number of People Calculation Method
  ,                                       !- Number of People
  0.08,                                   !- People per Floor Area {person/m2}
  ,                                       !- Floor Area per Person {m2/person}
  0.3,                                    !- Fraction Radiant
  ,                                       !- Sensible Heat Fraction
  Atividade sedentaria 120 W pessoa,      !- Activity Level Schedule Name
  ,                                       !- Carbon Dioxide Generation Rate {m3/s-W}
  ,                                       !- Enable ASHRAE 55 Comfort Warnings
  ,                                       !- Mean Radiant Temperature Calculation Type
  ,                                       !- Surface Name/Angle Factor List Name
  ,                                       !- Work Efficiency Schedule Name
  ClothingInsulationSchedule;             !- Clothing Insulation Calculation Method

ElectricEquipment,
  Electric Equipment 14,                  !- Name
  P4_0_1,                                 !- Zone or ZoneList or Space or SpaceList Name
  Computadores e demais equipamentos,     !- Schedule Name
  Watts/Area,                             !- Design Level Calculation Method
  ,                                       !- Design Level {W}
  12,                                     !- Watts per Floor Area {W/m2}
  ,                                       !- Watts per Person {W/person}
  ,                                       !- Fraction Latent
  ,                                       !- Fraction Radiant
  ,                                       !- Fraction Lost
  Computadores e cargas de escritorio;    !- End-Use Subcategory

ZoneInfiltration:DesignFlowRate,
  Space Infiltration Design Flow Rate 14, !- Name
  P4_0_1,                                 !- Zone or ZoneList or Space or SpaceList Name
  Always On Discrete,                     !- Schedule Name
  AirChanges/Hour,                        !- Design Flow Rate Calculation Method
  ,                                       !- Design Flow Rate {m3/s}
  ,                                       !- Flow Rate per Floor Area {m3/s-m2}
  ,                                       !- Flow Rate per Exterior Surface Area {m3/s-m2}
  0.15,                                   !- Air Changes per Hour {1/hr}
  ,                                       !- Constant Term Coefficient
  ,                                       !- Temperature Term Coefficient
  ,                                       !- Velocity Term Coefficient
  ,                                       !- Velocity Squared Term Coefficient
  Outdoor;                                !- Density Basis

ZoneControl:Thermostat,
  Zona P4_0_1 Thermostat,                 !- Name
  Zona P4_0_1,                            !- Zone or ZoneList Name
  Zona P4_0_1 Thermostat Schedule,        !- Control Type Schedule Name
  ThermostatSetpoint:DualSetpoint,        !- Control 1 Object Type
  Thermostat Setpoint Dual Setpoint 14,   !- Control 1 Name
  ,                                       !- Control 2 Object Type
  ,                                       !- Control 2 Name
  ,                                       !- Control 3 Object Type
  ,                                       !- Control 3 Name
  ,                                       !- Control 4 Object Type
  ,                                       !- Control 4 Name
  0;                                      !- Temperature Difference Between Cutout And Setpoint {deltaC}

Schedule:Compact,
  Zona P4_0_1 Thermostat Schedule,        !- Name
  Zona P4_0_1 Thermostat Schedule Type Limits, !- Schedule Type Limits Name
  Through: 12/31,                         !- Field 1
  For: AllDays,                           !- Field 2
  Until: 24:00,                           !- Field 3
  4;                                      !- Field 4

ScheduleTypeLimits,
  Zona P4_0_1 Thermostat Schedule Type Limits, !- Name
  0,                                      !- Lower Limit Value {BasedOnField A3}
  4,                                      !- Upper Limit Value {BasedOnField A3}
  DISCRETE;                               !- Numeric Type

ThermostatSetpoint:DualSetpoint,
  Thermostat Setpoint Dual Setpoint 14,   !- Name
  Aquecimento 20C,                        !- Heating Setpoint Temperature Schedule Name
  Resfriamento 24C;                       !- Cooling Setpoint Temperature Schedule Name

ZoneHVAC:EquipmentConnections,
  Zona P4_0_1,                            !- Zone Name
  Zona P4_0_1 Equipment List,             !- Zone Conditioning Equipment List Name
  Zona P4_0_1 Inlet Node List,            !- Zone Air Inlet Node or NodeList Name
  Zona P4_0_1 Exhaust Node List,          !- Zone Air Exhaust Node or NodeList Name
  Node 40;                                !- Zone Air Node Name

NodeList,
  Zona P4_0_1 Inlet Node List,            !- Name
  Node 42;                                !- Node Name 1

NodeList,
  Zona P4_0_1 Exhaust Node List,          !- Name
  Node 41;                                !- Node Name 1

ZoneHVAC:PackagedTerminalAirConditioner,
  Ar condicionado P4_0_1,                 !- Name
  HVAC 07-22,                             !- Availability Schedule Name
  Node 41,                                !- Air Inlet Node Name
  Node 42,                                !- Air Outlet Node Name
  OutdoorAir:Mixer,                       !- Outdoor Air Mixer Object Type
  Ar condicionado P4_0_1 OA Mixer,        !- Outdoor Air Mixer Name
  Autosize,                               !- Cooling Supply Air Flow Rate {m3/s}
  Autosize,                               !- Heating Supply Air Flow Rate {m3/s}
  Autosize,                               !- No Load Supply Air Flow Rate {m3/s}
  Yes,                                    !- No Load Supply Air Flow Rate Control Set To Low Speed
  0.45,                                   !- Cooling Outdoor Air Flow Rate {m3/s}
  0.45,                                   !- Heating Outdoor Air Flow Rate {m3/s}
  0.45,                                   !- No Load Outdoor Air Flow Rate {m3/s}
  Fan:ConstantVolume,                     !- Supply Air Fan Object Type
  Fan Constant Volume 14,                 !- Supply Air Fan Name
  Coil:Heating:Electric,                  !- Heating Coil Object Type
  Coil Heating Electric 14,               !- Heating Coil Name
  Coil:Cooling:DX:SingleSpeed,            !- Cooling Coil Object Type
  Coil Cooling DX Single Speed 14,        !- Cooling Coil Name
  DrawThrough,                            !- Fan Placement
  Always On Discrete;                     !- Supply Air Fan Operating Mode Schedule Name

OutdoorAir:Mixer,
  Ar condicionado P4_0_1 OA Mixer,        !- Name
  Ar condicionado P4_0_1 Mixed Air Node,  !- Mixed Air Node Name
  Ar condicionado P4_0_1 OA Node,         !- Outdoor Air Stream Node Name
  Ar condicionado P4_0_1 Relief Air Node, !- Relief Air Stream Node Name
  Node 41;                                !- Return Air Stream Node Name

OutdoorAir:NodeList,
  Ar condicionado P4_0_1 OA Node;         !- Node or NodeList Name 1

Fan:ConstantVolume,
  Fan Constant Volume 14,                 !- Name
  Always On Discrete,                     !- Availability Schedule Name
  0.6,                                    !- Fan Total Efficiency
  350,                                    !- Pressure Rise {Pa}
  AutoSize,                               !- Maximum Flow Rate {m3/s}
  0.9,                                    !- Motor Efficiency
  1,                                      !- Motor In Airstream Fraction
  Ar condicionado P4_0_1 Heating Coil Outlet Node, !- Air Inlet Node Name
  Node 42,                                !- Air Outlet Node Name
  ;                                       !- End-Use Subcategory

Coil:Heating:Electric,
  Coil Heating Electric 14,               !- Name
  Always On Discrete,                     !- Availability Schedule Name
  1,                                      !- Efficiency
  Autosize,                               !- Nominal Capacity {W}
  Ar condicionado P4_0_1 Cooling Coil Outlet Node, !- Air Inlet Node Name
  Ar condicionado P4_0_1 Heating Coil Outlet Node; !- Air Outlet Node Name

Curve:Biquadratic,
  Curve Biquadratic 27,                   !- Name
  0.942587793,                            !- Coefficient1 Constant
  0.009543347,                            !- Coefficient2 x
  0.00068377,                             !- Coefficient3 x**2
  -0.011042676,                           !- Coefficient4 y
  5.249e-06,                              !- Coefficient5 y**2
  -9.72e-06,                              !- Coefficient6 x*y
  17,                                     !- Minimum Value of x {BasedOnField A2}
  22,                                     !- Maximum Value of x {BasedOnField A2}
  13,                                     !- Minimum Value of y {BasedOnField A3}
  46;                                     !- Maximum Value of y {BasedOnField A3}

Curve:Quadratic,
  Curve Quadratic 40,                     !- Name
  0.8,                                    !- Coefficient1 Constant
  0.2,                                    !- Coefficient2 x
  0,                                      !- Coefficient3 x**2
  0.5,                                    !- Minimum Value of x {BasedOnField A2}
  1.5;                                    !- Maximum Value of x {BasedOnField A2}

Curve:Biquadratic,
  Curve Biquadratic 28,                   !- Name
  0.342414409,                            !- Coefficient1 Constant
  0.034885008,                            !- Coefficient2 x
  -0.0006237,                             !- Coefficient3 x**2
  0.004977216,                            !- Coefficient4 y
  0.000437951,                            !- Coefficient5 y**2
  -0.000728028,                           !- Coefficient6 x*y
  17,                                     !- Minimum Value of x {BasedOnField A2}
  22,                                     !- Maximum Value of x {BasedOnField A2}
  13,                                     !- Minimum Value of y {BasedOnField A3}
  46;                                     !- Maximum Value of y {BasedOnField A3}

Curve:Quadratic,
  Curve Quadratic 41,                     !- Name
  1.1552,                                 !- Coefficient1 Constant
  -0.1808,                                !- Coefficient2 x
  0.0256,                                 !- Coefficient3 x**2
  0.5,                                    !- Minimum Value of x {BasedOnField A2}
  1.5;                                    !- Maximum Value of x {BasedOnField A2}

Curve:Quadratic,
  Curve Quadratic 42,                     !- Name
  0.85,                                   !- Coefficient1 Constant
  0.15,                                   !- Coefficient2 x
  0,                                      !- Coefficient3 x**2
  0,                                      !- Minimum Value of x {BasedOnField A2}
  1;                                      !- Maximum Value of x {BasedOnField A2}

Coil:Cooling:DX:SingleSpeed,
  Coil Cooling DX Single Speed 14,        !- Name
  Always On Discrete,                     !- Availability Schedule Name
  Autosize,                               !- Gross Rated Total Cooling Capacity {W}
  Autosize,                               !- Gross Rated Sensible Heat Ratio
  3.2,                                    !- Gross Rated Cooling COP {W/W}
  Autosize,                               !- Rated Air Flow Rate {m3/s}
  773.3,                                  !- Rated Evaporator Fan Power Per Volume Flow Rate 2017 {W/(m3/s)}
  934.4,                                  !- Rated Evaporator Fan Power Per Volume Flow Rate 2023 {W/(m3/s)}
  Ar condicionado P4_0_1 Mixed Air Node,  !- Air Inlet Node Name
  Ar condicionado P4_0_1 Cooling Coil Outlet Node, !- Air Outlet Node Name
  Curve Biquadratic 27,                   !- Total Cooling Capacity Function of Temperature Curve Name
  Curve Quadratic 40,                     !- Total Cooling Capacity Function of Flow Fraction Curve Name
  Curve Biquadratic 28,                   !- Energy Input Ratio Function of Temperature Curve Name
  Curve Quadratic 41,                     !- Energy Input Ratio Function of Flow Fraction Curve Name
  Curve Quadratic 42,                     !- Part Load Fraction Correlation Curve Name
  -25,                                    !- Minimum Outdoor Dry-Bulb Temperature for Compressor Operation {C}
  0,                                      !- Nominal Time for Condensate Removal to Begin {s}
  0,                                      !- Ratio of Initial Moisture Evaporation Rate and Steady State Latent Capacity {dimensionless}
  0,                                      !- Maximum Cycling Rate {cycles/hr}
  0,                                      !- Latent Capacity Time Constant {s}
  ,                                       !- Condenser Air Inlet Node Name
  AirCooled,                              !- Condenser Type
  0.9,                                    !- Evaporative Condenser Effectiveness {dimensionless}
  Autosize,                               !- Evaporative Condenser Air Flow Rate {m3/s}
  Autosize,                               !- Evaporative Condenser Pump Rated Power Consumption {W}
  0,                                      !- Crankcase Heater Capacity {W}
  ,                                       !- Crankcase Heater Capacity Function of Temperature Curve Name
  10,                                     !- Maximum Outdoor Dry-Bulb Temperature for Crankcase Heater Operation {C}
  ,                                       !- Supply Water Storage Tank Name
  ,                                       !- Condensate Collection Water Storage Tank Name
  0,                                      !- Basin Heater Capacity {W/K}
  2;                                      !- Basin Heater Setpoint Temperature {C}

ZoneHVAC:EquipmentList,
  Zona P4_0_1 Equipment List,             !- Name
  SequentialLoad,                         !- Load Distribution Scheme
  ZoneHVAC:PackagedTerminalAirConditioner, !- Zone Equipment Object Type 1
  Ar condicionado P4_0_1,                 !- Zone Equipment Name 1
  1,                                      !- Zone Equipment Cooling Sequence 1
  1,                                      !- Zone Equipment Heating or No-Load Sequence 1
  ,                                       !- Zone Equipment Sequential Cooling Fraction Schedule Name 1
  ;                                       !- Zone Equipment Sequential Heating Fraction Schedule Name 1

Sizing:Zone,
  Zona P4_0_1,                            !- Zone or ZoneList Name
  SupplyAirTemperature,                   !- Zone Cooling Design Supply Air Temperature Input Method
  14,                                     !- Zone Cooling Design Supply Air Temperature {C}
  11.11,                                  !- Zone Cooling Design Supply Air Temperature Difference {deltaC}
  SupplyAirTemperature,                   !- Zone Heating Design Supply Air Temperature Input Method
  40,                                     !- Zone Heating Design Supply Air Temperature {C}
  11.11,                                  !- Zone Heating Design Supply Air Temperature Difference {deltaC}
  0.0085,                                 !- Zone Cooling Design Supply Air Humidity Ratio {kgWater/kgDryAir}
  0.008,                                  !- Zone Heating Design Supply Air Humidity Ratio {kgWater/kgDryAir}
  Design Specification Outdoor Air 14,    !- Design Specification Outdoor Air Object Name
  ,                                       !- Zone Heating Sizing Factor
  ,                                       !- Zone Cooling Sizing Factor
  DesignDay,                              !- Cooling Design Air Flow Method
  0,                                      !- Cooling Design Air Flow Rate {m3/s}
  0.000762,                               !- Cooling Minimum Air Flow per Zone Floor Area {m3/s-m2}
  0,                                      !- Cooling Minimum Air Flow {m3/s}
  0,                                      !- Cooling Minimum Air Flow Fraction
  DesignDay,                              !- Heating Design Air Flow Method
  0,                                      !- Heating Design Air Flow Rate {m3/s}
  0.002032,                               !- Heating Maximum Air Flow per Zone Floor Area {m3/s-m2}
  0.1415762,                              !- Heating Maximum Air Flow {m3/s}
  0.3,                                    !- Heating Maximum Air Flow Fraction
  ,                                       !- Design Specification Zone Air Distribution Object Name
  No,                                     !- Account for Dedicated Outdoor Air System
  ,                                       !- Dedicated Outdoor Air System Control Strategy
  ,                                       !- Dedicated Outdoor Air Low Setpoint Temperature for Design {C}
  ,                                       !- Dedicated Outdoor Air High Setpoint Temperature for Design {C}
  Sensible Load Only No Latent Load,      !- Zone Load Sizing Method
  HumidityRatioDifference,                !- Zone Latent Cooling Design Supply Air Humidity Ratio Input Method
  ,                                       !- Zone Dehumidification Design Supply Air Humidity Ratio {kgWater/kgDryAir}
  0.005,                                  !- Zone Cooling Design Supply Air Humidity Ratio Difference {kgWater/kgDryAir}
  HumidityRatioDifference,                !- Zone Latent Heating Design Supply Air Humidity Ratio Input Method
  ,                                       !- Zone Humidification Design Supply Air Humidity Ratio {kgWater/kgDryAir}
  0.005,                                  !- Zone Humidification Design Supply Air Humidity Ratio Difference {kgWater/kgDryAir}
  ,                                       !- Zone Humidistat Dehumidification Set Point Schedule Name
  ,                                       !- Zone Humidistat Humidification Set Point Schedule Name
  Coincident,                             !- Type of Space Sum to Use
  None,                                   !- Heating Coil Sizing Method
  1;                                      !- Maximum Heating Capacity To Cooling Load Sizing Ratio {W/W}

DesignSpecification:OutdoorAir,
  Design Specification Outdoor Air 14,    !- Name
  Sum,                                    !- Outdoor Air Method
  0.0075,                                 !- Outdoor Air Flow per Person {m3/s-person}
  0.0003,                                 !- Outdoor Air Flow per Zone Floor Area {m3/s-m2}
  0,                                      !- Outdoor Air Flow per Zone {m3/s}
  0;                                      !- Outdoor Air Flow Air Changes per Hour {1/hr}

Zone,
  Zona P4_1_0,                            !- Name
  ,                                       !- Direction of Relative North {deg}
  0,                                      !- X Origin {m}
  0,                                      !- Y Origin {m}
  0,                                      !- Z Origin {m}
  ,                                       !- Type
  1,                                      !- Multiplier
  ,                                       !- Ceiling Height {m}
  ,                                       !- Volume {m3}
  ,                                       !- Floor Area {m2}
  ,                                       !- Zone Inside Convection Algorithm
  ,                                       !- Zone Outside Convection Algorithm
  Yes;                                    !- Part of Total Floor Area

Space,
  P4_1_0,                                 !- Name
  Zona P4_1_0,                            !- Zone Name
  ,                                       !- Ceiling Height {m}
  ,                                       !- Volume {m3}
  ;                                       !- Floor Area {m2}

BuildingSurface:Detailed,
  Surface 85,                             !- Name
  Floor,                                  !- Surface Type
  Laje concreto,                          !- Construction Name
  Zona P4_1_0,                            !- Zone Name
  P4_1_0,                                 !- Space Name
  Surface,                                !- Outside Boundary Condition
  Surface 66,                             !- Outside Boundary Condition Object
  NoSun,                                  !- Sun Exposure
  NoWind,                                 !- Wind Exposure
  ,                                       !- View Factor to Ground
  ,                                       !- Number of Vertices
  25, 0, 10.5,                            !- X,Y,Z Vertex 1 {m}
  25, 20, 10.5,                           !- X,Y,Z Vertex 2 {m}
  50, 20, 10.5,                           !- X,Y,Z Vertex 3 {m}
  50, 0, 10.5;                            !- X,Y,Z Vertex 4 {m}

BuildingSurface:Detailed,
  Surface 86,                             !- Name
  Wall,                                   !- Surface Type
  Alvenaria rebocada,                     !- Construction Name
  Zona P4_1_0,                            !- Zone Name
  P4_1_0,                                 !- Space Name
  Surface,                                !- Outside Boundary Condition
  Surface 76,                             !- Outside Boundary Condition Object
  NoSun,                                  !- Sun Exposure
  NoWind,                                 !- Wind Exposure
  ,                                       !- View Factor to Ground
  ,                                       !- Number of Vertices
  25, 0, 14,                              !- X,Y,Z Vertex 1 {m}
  25, 20, 14,                             !- X,Y,Z Vertex 2 {m}
  25, 20, 10.5,                           !- X,Y,Z Vertex 3 {m}
  25, 0, 10.5;                            !- X,Y,Z Vertex 4 {m}

BuildingSurface:Detailed,
  Surface 87,                             !- Name
  Wall,                                   !- Surface Type
  Alvenaria rebocada,                     !- Construction Name
  Zona P4_1_0,                            !- Zone Name
  P4_1_0,                                 !- Space Name
  Surface,                                !- Outside Boundary Condition
  Surface 95,                             !- Outside Boundary Condition Object
  NoSun,                                  !- Sun Exposure
  NoWind,                                 !- Wind Exposure
  ,                                       !- View Factor to Ground
  ,                                       !- Number of Vertices
  25, 20, 14,                             !- X,Y,Z Vertex 1 {m}
  50, 20, 14,                             !- X,Y,Z Vertex 2 {m}
  50, 20, 10.5,                           !- X,Y,Z Vertex 3 {m}
  25, 20, 10.5;                           !- X,Y,Z Vertex 4 {m}

BuildingSurface:Detailed,
  Surface 88,                             !- Name
  Wall,                                   !- Surface Type
  Alvenaria rebocada,                     !- Construction Name
  Zona P4_1_0,                            !- Zone Name
  P4_1_0,                                 !- Space Name
  Outdoors,                               !- Outside Boundary Condition
  ,                                       !- Outside Boundary Condition Object
  SunExposed,                             !- Sun Exposure
  WindExposed,                            !- Wind Exposure
  ,                                       !- View Factor to Ground
  ,                                       !- Number of Vertices
  50, 20, 14,                             !- X,Y,Z Vertex 1 {m}
  50, 0, 14,                              !- X,Y,Z Vertex 2 {m}
  50, 0, 10.5,                            !- X,Y,Z Vertex 3 {m}
  50, 20, 10.5;                           !- X,Y,Z Vertex 4 {m}

FenestrationSurface:Detailed,
  Sub Surface 30,                         !- Name
  Window,                                 !- Surface Type
  Vidro U3 SHGC0.4,                       !- Construction Name
  Surface 88,                             !- Building Surface Name
  ,                                       !- Outside Boundary Condition Object
  ,                                       !- View Factor to Ground
  ,                                       !- Frame and Divider Name
  ,                                       !- Multiplier
  ,                                       !- Number of Vertices
  50, 0.0254, 12.3146737914302,           !- X,Y,Z Vertex 1 {m}
  50, 0.0254, 11.262,                     !- X,Y,Z Vertex 2 {m}
  50, 19.9746, 11.262,                    !- X,Y,Z Vertex 3 {m}
  50, 19.9746, 12.3146737914302;          !- X,Y,Z Vertex 4 {m}

BuildingSurface:Detailed,
  Surface 89,                             !- Name
  Wall,                                   !- Surface Type
  Alvenaria rebocada,                     !- Construction Name
  Zona P4_1_0,                            !- Zone Name
  P4_1_0,                                 !- Space Name
  Outdoors,                               !- Outside Boundary Condition
  ,                                       !- Outside Boundary Condition Object
  SunExposed,                             !- Sun Exposure
  WindExposed,                            !- Wind Exposure
  ,                                       !- View Factor to Ground
  ,                                       !- Number of Vertices
  50, 0, 14,                              !- X,Y,Z Vertex 1 {m}
  25, 0, 14,                              !- X,Y,Z Vertex 2 {m}
  25, 0, 10.5,                            !- X,Y,Z Vertex 3 {m}
  50, 0, 10.5;                            !- X,Y,Z Vertex 4 {m}

FenestrationSurface:Detailed,
  Sub Surface 21,                         !- Name
  Window,                                 !- Surface Type
  Vidro U3 SHGC0.4,                       !- Construction Name
  Surface 89,                             !- Building Surface Name
  ,                                       !- Outside Boundary Condition Object
  ,                                       !- View Factor to Ground
  ,                                       !- Frame and Divider Name
  ,                                       !- Multiplier
  ,                                       !- Number of Vertices
  25.0254, 0, 12.3141379443028,           !- X,Y,Z Vertex 1 {m}
  25.0254, 0, 11.262,                     !- X,Y,Z Vertex 2 {m}
  49.9746, 0, 11.262,                     !- X,Y,Z Vertex 3 {m}
  49.9746, 0, 12.3141379443028;           !- X,Y,Z Vertex 4 {m}

BuildingSurface:Detailed,
  Surface 90,                             !- Name
  Roof,                                   !- Surface Type
  Cobertura isolada,                      !- Construction Name
  Zona P4_1_0,                            !- Zone Name
  P4_1_0,                                 !- Space Name
  Outdoors,                               !- Outside Boundary Condition
  ,                                       !- Outside Boundary Condition Object
  SunExposed,                             !- Sun Exposure
  WindExposed,                            !- Wind Exposure
  ,                                       !- View Factor to Ground
  ,                                       !- Number of Vertices
  50, 0, 14,                              !- X,Y,Z Vertex 1 {m}
  50, 20, 14,                             !- X,Y,Z Vertex 2 {m}
  25, 20, 14,                             !- X,Y,Z Vertex 3 {m}
  25, 0, 14;                              !- X,Y,Z Vertex 4 {m}

Lights,
  Lights 15,                              !- Name
  P4_1_0,                                 !- Zone or ZoneList or Space or SpaceList Name
  Iluminacao,                             !- Schedule Name
  Watts/Area,                             !- Design Level Calculation Method
  ,                                       !- Lighting Level {W}
  8,                                      !- Watts per Floor Area {W/m2}
  ,                                       !- Watts per Person {W/person}
  ,                                       !- Return Air Fraction
  ,                                       !- Fraction Radiant
  ,                                       !- Fraction Visible
  1,                                      !- Fraction Replaceable
  General;                                !- End-Use Subcategory

People,
  People 15,                              !- Name
  P4_1_0,                                 !- Zone or ZoneList or Space or SpaceList Name
  Ocupacao,                               !- Number of People Schedule Name
  People/Area,                            !- Number of People Calculation Method
  ,                                       !- Number of People
  0.08,                                   !- People per Floor Area {person/m2}
  ,                                       !- Floor Area per Person {m2/person}
  0.3,                                    !- Fraction Radiant
  ,                                       !- Sensible Heat Fraction
  Atividade sedentaria 120 W pessoa,      !- Activity Level Schedule Name
  ,                                       !- Carbon Dioxide Generation Rate {m3/s-W}
  ,                                       !- Enable ASHRAE 55 Comfort Warnings
  ,                                       !- Mean Radiant Temperature Calculation Type
  ,                                       !- Surface Name/Angle Factor List Name
  ,                                       !- Work Efficiency Schedule Name
  ClothingInsulationSchedule;             !- Clothing Insulation Calculation Method

ElectricEquipment,
  Electric Equipment 15,                  !- Name
  P4_1_0,                                 !- Zone or ZoneList or Space or SpaceList Name
  Computadores e demais equipamentos,     !- Schedule Name
  Watts/Area,                             !- Design Level Calculation Method
  ,                                       !- Design Level {W}
  12,                                     !- Watts per Floor Area {W/m2}
  ,                                       !- Watts per Person {W/person}
  ,                                       !- Fraction Latent
  ,                                       !- Fraction Radiant
  ,                                       !- Fraction Lost
  Computadores e cargas de escritorio;    !- End-Use Subcategory

ZoneInfiltration:DesignFlowRate,
  Space Infiltration Design Flow Rate 15, !- Name
  P4_1_0,                                 !- Zone or ZoneList or Space or SpaceList Name
  Always On Discrete,                     !- Schedule Name
  AirChanges/Hour,                        !- Design Flow Rate Calculation Method
  ,                                       !- Design Flow Rate {m3/s}
  ,                                       !- Flow Rate per Floor Area {m3/s-m2}
  ,                                       !- Flow Rate per Exterior Surface Area {m3/s-m2}
  0.15,                                   !- Air Changes per Hour {1/hr}
  ,                                       !- Constant Term Coefficient
  ,                                       !- Temperature Term Coefficient
  ,                                       !- Velocity Term Coefficient
  ,                                       !- Velocity Squared Term Coefficient
  Outdoor;                                !- Density Basis

ZoneControl:Thermostat,
  Zona P4_1_0 Thermostat,                 !- Name
  Zona P4_1_0,                            !- Zone or ZoneList Name
  Zona P4_1_0 Thermostat Schedule,        !- Control Type Schedule Name
  ThermostatSetpoint:DualSetpoint,        !- Control 1 Object Type
  Thermostat Setpoint Dual Setpoint 15,   !- Control 1 Name
  ,                                       !- Control 2 Object Type
  ,                                       !- Control 2 Name
  ,                                       !- Control 3 Object Type
  ,                                       !- Control 3 Name
  ,                                       !- Control 4 Object Type
  ,                                       !- Control 4 Name
  0;                                      !- Temperature Difference Between Cutout And Setpoint {deltaC}

Schedule:Compact,
  Zona P4_1_0 Thermostat Schedule,        !- Name
  Zona P4_1_0 Thermostat Schedule Type Limits, !- Schedule Type Limits Name
  Through: 12/31,                         !- Field 1
  For: AllDays,                           !- Field 2
  Until: 24:00,                           !- Field 3
  4;                                      !- Field 4

ScheduleTypeLimits,
  Zona P4_1_0 Thermostat Schedule Type Limits, !- Name
  0,                                      !- Lower Limit Value {BasedOnField A3}
  4,                                      !- Upper Limit Value {BasedOnField A3}
  DISCRETE;                               !- Numeric Type

ThermostatSetpoint:DualSetpoint,
  Thermostat Setpoint Dual Setpoint 15,   !- Name
  Aquecimento 20C,                        !- Heating Setpoint Temperature Schedule Name
  Resfriamento 24C;                       !- Cooling Setpoint Temperature Schedule Name

ZoneHVAC:EquipmentConnections,
  Zona P4_1_0,                            !- Zone Name
  Zona P4_1_0 Equipment List,             !- Zone Conditioning Equipment List Name
  Zona P4_1_0 Inlet Node List,            !- Zone Air Inlet Node or NodeList Name
  Zona P4_1_0 Exhaust Node List,          !- Zone Air Exhaust Node or NodeList Name
  Node 43;                                !- Zone Air Node Name

NodeList,
  Zona P4_1_0 Inlet Node List,            !- Name
  Node 45;                                !- Node Name 1

NodeList,
  Zona P4_1_0 Exhaust Node List,          !- Name
  Node 44;                                !- Node Name 1

ZoneHVAC:PackagedTerminalAirConditioner,
  Ar condicionado P4_1_0,                 !- Name
  HVAC 07-22,                             !- Availability Schedule Name
  Node 44,                                !- Air Inlet Node Name
  Node 45,                                !- Air Outlet Node Name
  OutdoorAir:Mixer,                       !- Outdoor Air Mixer Object Type
  Ar condicionado P4_1_0 OA Mixer,        !- Outdoor Air Mixer Name
  Autosize,                               !- Cooling Supply Air Flow Rate {m3/s}
  Autosize,                               !- Heating Supply Air Flow Rate {m3/s}
  Autosize,                               !- No Load Supply Air Flow Rate {m3/s}
  Yes,                                    !- No Load Supply Air Flow Rate Control Set To Low Speed
  0.45,                                   !- Cooling Outdoor Air Flow Rate {m3/s}
  0.45,                                   !- Heating Outdoor Air Flow Rate {m3/s}
  0.45,                                   !- No Load Outdoor Air Flow Rate {m3/s}
  Fan:ConstantVolume,                     !- Supply Air Fan Object Type
  Fan Constant Volume 15,                 !- Supply Air Fan Name
  Coil:Heating:Electric,                  !- Heating Coil Object Type
  Coil Heating Electric 15,               !- Heating Coil Name
  Coil:Cooling:DX:SingleSpeed,            !- Cooling Coil Object Type
  Coil Cooling DX Single Speed 15,        !- Cooling Coil Name
  DrawThrough,                            !- Fan Placement
  Always On Discrete;                     !- Supply Air Fan Operating Mode Schedule Name

OutdoorAir:Mixer,
  Ar condicionado P4_1_0 OA Mixer,        !- Name
  Ar condicionado P4_1_0 Mixed Air Node,  !- Mixed Air Node Name
  Ar condicionado P4_1_0 OA Node,         !- Outdoor Air Stream Node Name
  Ar condicionado P4_1_0 Relief Air Node, !- Relief Air Stream Node Name
  Node 44;                                !- Return Air Stream Node Name

OutdoorAir:NodeList,
  Ar condicionado P4_1_0 OA Node;         !- Node or NodeList Name 1

Fan:ConstantVolume,
  Fan Constant Volume 15,                 !- Name
  Always On Discrete,                     !- Availability Schedule Name
  0.6,                                    !- Fan Total Efficiency
  350,                                    !- Pressure Rise {Pa}
  AutoSize,                               !- Maximum Flow Rate {m3/s}
  0.9,                                    !- Motor Efficiency
  1,                                      !- Motor In Airstream Fraction
  Ar condicionado P4_1_0 Heating Coil Outlet Node, !- Air Inlet Node Name
  Node 45,                                !- Air Outlet Node Name
  ;                                       !- End-Use Subcategory

Coil:Heating:Electric,
  Coil Heating Electric 15,               !- Name
  Always On Discrete,                     !- Availability Schedule Name
  1,                                      !- Efficiency
  Autosize,                               !- Nominal Capacity {W}
  Ar condicionado P4_1_0 Cooling Coil Outlet Node, !- Air Inlet Node Name
  Ar condicionado P4_1_0 Heating Coil Outlet Node; !- Air Outlet Node Name

Curve:Biquadratic,
  Curve Biquadratic 29,                   !- Name
  0.942587793,                            !- Coefficient1 Constant
  0.009543347,                            !- Coefficient2 x
  0.00068377,                             !- Coefficient3 x**2
  -0.011042676,                           !- Coefficient4 y
  5.249e-06,                              !- Coefficient5 y**2
  -9.72e-06,                              !- Coefficient6 x*y
  17,                                     !- Minimum Value of x {BasedOnField A2}
  22,                                     !- Maximum Value of x {BasedOnField A2}
  13,                                     !- Minimum Value of y {BasedOnField A3}
  46;                                     !- Maximum Value of y {BasedOnField A3}

Curve:Quadratic,
  Curve Quadratic 43,                     !- Name
  0.8,                                    !- Coefficient1 Constant
  0.2,                                    !- Coefficient2 x
  0,                                      !- Coefficient3 x**2
  0.5,                                    !- Minimum Value of x {BasedOnField A2}
  1.5;                                    !- Maximum Value of x {BasedOnField A2}

Curve:Biquadratic,
  Curve Biquadratic 30,                   !- Name
  0.342414409,                            !- Coefficient1 Constant
  0.034885008,                            !- Coefficient2 x
  -0.0006237,                             !- Coefficient3 x**2
  0.004977216,                            !- Coefficient4 y
  0.000437951,                            !- Coefficient5 y**2
  -0.000728028,                           !- Coefficient6 x*y
  17,                                     !- Minimum Value of x {BasedOnField A2}
  22,                                     !- Maximum Value of x {BasedOnField A2}
  13,                                     !- Minimum Value of y {BasedOnField A3}
  46;                                     !- Maximum Value of y {BasedOnField A3}

Curve:Quadratic,
  Curve Quadratic 44,                     !- Name
  1.1552,                                 !- Coefficient1 Constant
  -0.1808,                                !- Coefficient2 x
  0.0256,                                 !- Coefficient3 x**2
  0.5,                                    !- Minimum Value of x {BasedOnField A2}
  1.5;                                    !- Maximum Value of x {BasedOnField A2}

Curve:Quadratic,
  Curve Quadratic 45,                     !- Name
  0.85,                                   !- Coefficient1 Constant
  0.15,                                   !- Coefficient2 x
  0,                                      !- Coefficient3 x**2
  0,                                      !- Minimum Value of x {BasedOnField A2}
  1;                                      !- Maximum Value of x {BasedOnField A2}

Coil:Cooling:DX:SingleSpeed,
  Coil Cooling DX Single Speed 15,        !- Name
  Always On Discrete,                     !- Availability Schedule Name
  Autosize,                               !- Gross Rated Total Cooling Capacity {W}
  Autosize,                               !- Gross Rated Sensible Heat Ratio
  3.2,                                    !- Gross Rated Cooling COP {W/W}
  Autosize,                               !- Rated Air Flow Rate {m3/s}
  773.3,                                  !- Rated Evaporator Fan Power Per Volume Flow Rate 2017 {W/(m3/s)}
  934.4,                                  !- Rated Evaporator Fan Power Per Volume Flow Rate 2023 {W/(m3/s)}
  Ar condicionado P4_1_0 Mixed Air Node,  !- Air Inlet Node Name
  Ar condicionado P4_1_0 Cooling Coil Outlet Node, !- Air Outlet Node Name
  Curve Biquadratic 29,                   !- Total Cooling Capacity Function of Temperature Curve Name
  Curve Quadratic 43,                     !- Total Cooling Capacity Function of Flow Fraction Curve Name
  Curve Biquadratic 30,                   !- Energy Input Ratio Function of Temperature Curve Name
  Curve Quadratic 44,                     !- Energy Input Ratio Function of Flow Fraction Curve Name
  Curve Quadratic 45,                     !- Part Load Fraction Correlation Curve Name
  -25,                                    !- Minimum Outdoor Dry-Bulb Temperature for Compressor Operation {C}
  0,                                      !- Nominal Time for Condensate Removal to Begin {s}
  0,                                      !- Ratio of Initial Moisture Evaporation Rate and Steady State Latent Capacity {dimensionless}
  0,                                      !- Maximum Cycling Rate {cycles/hr}
  0,                                      !- Latent Capacity Time Constant {s}
  ,                                       !- Condenser Air Inlet Node Name
  AirCooled,                              !- Condenser Type
  0.9,                                    !- Evaporative Condenser Effectiveness {dimensionless}
  Autosize,                               !- Evaporative Condenser Air Flow Rate {m3/s}
  Autosize,                               !- Evaporative Condenser Pump Rated Power Consumption {W}
  0,                                      !- Crankcase Heater Capacity {W}
  ,                                       !- Crankcase Heater Capacity Function of Temperature Curve Name
  10,                                     !- Maximum Outdoor Dry-Bulb Temperature for Crankcase Heater Operation {C}
  ,                                       !- Supply Water Storage Tank Name
  ,                                       !- Condensate Collection Water Storage Tank Name
  0,                                      !- Basin Heater Capacity {W/K}
  2;                                      !- Basin Heater Setpoint Temperature {C}

ZoneHVAC:EquipmentList,
  Zona P4_1_0 Equipment List,             !- Name
  SequentialLoad,                         !- Load Distribution Scheme
  ZoneHVAC:PackagedTerminalAirConditioner, !- Zone Equipment Object Type 1
  Ar condicionado P4_1_0,                 !- Zone Equipment Name 1
  1,                                      !- Zone Equipment Cooling Sequence 1
  1,                                      !- Zone Equipment Heating or No-Load Sequence 1
  ,                                       !- Zone Equipment Sequential Cooling Fraction Schedule Name 1
  ;                                       !- Zone Equipment Sequential Heating Fraction Schedule Name 1

Sizing:Zone,
  Zona P4_1_0,                            !- Zone or ZoneList Name
  SupplyAirTemperature,                   !- Zone Cooling Design Supply Air Temperature Input Method
  14,                                     !- Zone Cooling Design Supply Air Temperature {C}
  11.11,                                  !- Zone Cooling Design Supply Air Temperature Difference {deltaC}
  SupplyAirTemperature,                   !- Zone Heating Design Supply Air Temperature Input Method
  40,                                     !- Zone Heating Design Supply Air Temperature {C}
  11.11,                                  !- Zone Heating Design Supply Air Temperature Difference {deltaC}
  0.0085,                                 !- Zone Cooling Design Supply Air Humidity Ratio {kgWater/kgDryAir}
  0.008,                                  !- Zone Heating Design Supply Air Humidity Ratio {kgWater/kgDryAir}
  Design Specification Outdoor Air 15,    !- Design Specification Outdoor Air Object Name
  ,                                       !- Zone Heating Sizing Factor
  ,                                       !- Zone Cooling Sizing Factor
  DesignDay,                              !- Cooling Design Air Flow Method
  0,                                      !- Cooling Design Air Flow Rate {m3/s}
  0.000762,                               !- Cooling Minimum Air Flow per Zone Floor Area {m3/s-m2}
  0,                                      !- Cooling Minimum Air Flow {m3/s}
  0,                                      !- Cooling Minimum Air Flow Fraction
  DesignDay,                              !- Heating Design Air Flow Method
  0,                                      !- Heating Design Air Flow Rate {m3/s}
  0.002032,                               !- Heating Maximum Air Flow per Zone Floor Area {m3/s-m2}
  0.1415762,                              !- Heating Maximum Air Flow {m3/s}
  0.3,                                    !- Heating Maximum Air Flow Fraction
  ,                                       !- Design Specification Zone Air Distribution Object Name
  No,                                     !- Account for Dedicated Outdoor Air System
  ,                                       !- Dedicated Outdoor Air System Control Strategy
  ,                                       !- Dedicated Outdoor Air Low Setpoint Temperature for Design {C}
  ,                                       !- Dedicated Outdoor Air High Setpoint Temperature for Design {C}
  Sensible Load Only No Latent Load,      !- Zone Load Sizing Method
  HumidityRatioDifference,                !- Zone Latent Cooling Design Supply Air Humidity Ratio Input Method
  ,                                       !- Zone Dehumidification Design Supply Air Humidity Ratio {kgWater/kgDryAir}
  0.005,                                  !- Zone Cooling Design Supply Air Humidity Ratio Difference {kgWater/kgDryAir}
  HumidityRatioDifference,                !- Zone Latent Heating Design Supply Air Humidity Ratio Input Method
  ,                                       !- Zone Humidification Design Supply Air Humidity Ratio {kgWater/kgDryAir}
  0.005,                                  !- Zone Humidification Design Supply Air Humidity Ratio Difference {kgWater/kgDryAir}
  ,                                       !- Zone Humidistat Dehumidification Set Point Schedule Name
  ,                                       !- Zone Humidistat Humidification Set Point Schedule Name
  Coincident,                             !- Type of Space Sum to Use
  None,                                   !- Heating Coil Sizing Method
  1;                                      !- Maximum Heating Capacity To Cooling Load Sizing Ratio {W/W}

DesignSpecification:OutdoorAir,
  Design Specification Outdoor Air 15,    !- Name
  Sum,                                    !- Outdoor Air Method
  0.0075,                                 !- Outdoor Air Flow per Person {m3/s-person}
  0.0003,                                 !- Outdoor Air Flow per Zone Floor Area {m3/s-m2}
  0,                                      !- Outdoor Air Flow per Zone {m3/s}
  0;                                      !- Outdoor Air Flow Air Changes per Hour {1/hr}

Zone,
  Zona P4_1_1,                            !- Name
  ,                                       !- Direction of Relative North {deg}
  0,                                      !- X Origin {m}
  0,                                      !- Y Origin {m}
  0,                                      !- Z Origin {m}
  ,                                       !- Type
  1,                                      !- Multiplier
  ,                                       !- Ceiling Height {m}
  ,                                       !- Volume {m3}
  ,                                       !- Floor Area {m2}
  ,                                       !- Zone Inside Convection Algorithm
  ,                                       !- Zone Outside Convection Algorithm
  Yes;                                    !- Part of Total Floor Area

Space,
  P4_1_1,                                 !- Name
  Zona P4_1_1,                            !- Zone Name
  ,                                       !- Ceiling Height {m}
  ,                                       !- Volume {m3}
  ;                                       !- Floor Area {m2}

BuildingSurface:Detailed,
  Surface 91,                             !- Name
  Floor,                                  !- Surface Type
  Laje concreto,                          !- Construction Name
  Zona P4_1_1,                            !- Zone Name
  P4_1_1,                                 !- Space Name
  Surface,                                !- Outside Boundary Condition
  Surface 72,                             !- Outside Boundary Condition Object
  NoSun,                                  !- Sun Exposure
  NoWind,                                 !- Wind Exposure
  ,                                       !- View Factor to Ground
  ,                                       !- Number of Vertices
  25, 20, 10.5,                           !- X,Y,Z Vertex 1 {m}
  25, 40, 10.5,                           !- X,Y,Z Vertex 2 {m}
  50, 40, 10.5,                           !- X,Y,Z Vertex 3 {m}
  50, 20, 10.5;                           !- X,Y,Z Vertex 4 {m}

BuildingSurface:Detailed,
  Surface 92,                             !- Name
  Wall,                                   !- Surface Type
  Alvenaria rebocada,                     !- Construction Name
  Zona P4_1_1,                            !- Zone Name
  P4_1_1,                                 !- Space Name
  Surface,                                !- Outside Boundary Condition
  Surface 82,                             !- Outside Boundary Condition Object
  NoSun,                                  !- Sun Exposure
  NoWind,                                 !- Wind Exposure
  ,                                       !- View Factor to Ground
  ,                                       !- Number of Vertices
  25, 20, 14,                             !- X,Y,Z Vertex 1 {m}
  25, 40, 14,                             !- X,Y,Z Vertex 2 {m}
  25, 40, 10.5,                           !- X,Y,Z Vertex 3 {m}
  25, 20, 10.5;                           !- X,Y,Z Vertex 4 {m}

BuildingSurface:Detailed,
  Surface 93,                             !- Name
  Wall,                                   !- Surface Type
  Alvenaria rebocada,                     !- Construction Name
  Zona P4_1_1,                            !- Zone Name
  P4_1_1,                                 !- Space Name
  Outdoors,                               !- Outside Boundary Condition
  ,                                       !- Outside Boundary Condition Object
  SunExposed,                             !- Sun Exposure
  WindExposed,                            !- Wind Exposure
  ,                                       !- View Factor to Ground
  ,                                       !- Number of Vertices
  25, 40, 14,                             !- X,Y,Z Vertex 1 {m}
  50, 40, 14,                             !- X,Y,Z Vertex 2 {m}
  50, 40, 10.5,                           !- X,Y,Z Vertex 3 {m}
  25, 40, 10.5;                           !- X,Y,Z Vertex 4 {m}

FenestrationSurface:Detailed,
  Sub Surface 31,                         !- Name
  Window,                                 !- Surface Type
  Vidro U3 SHGC0.4,                       !- Construction Name
  Surface 93,                             !- Building Surface Name
  ,                                       !- Outside Boundary Condition Object
  ,                                       !- View Factor to Ground
  ,                                       !- Frame and Divider Name
  ,                                       !- Multiplier
  ,                                       !- Number of Vertices
  49.9746, 40, 12.3141379443028,          !- X,Y,Z Vertex 1 {m}
  49.9746, 40, 11.262,                    !- X,Y,Z Vertex 2 {m}
  25.0254, 40, 11.262,                    !- X,Y,Z Vertex 3 {m}
  25.0254, 40, 12.3141379443028;          !- X,Y,Z Vertex 4 {m}

BuildingSurface:Detailed,
  Surface 94,                             !- Name
  Wall,                                   !- Surface Type
  Alvenaria rebocada,                     !- Construction Name
  Zona P4_1_1,                            !- Zone Name
  P4_1_1,                                 !- Space Name
  Outdoors,                               !- Outside Boundary Condition
  ,                                       !- Outside Boundary Condition Object
  SunExposed,                             !- Sun Exposure
  WindExposed,                            !- Wind Exposure
  ,                                       !- View Factor to Ground
  ,                                       !- Number of Vertices
  50, 40, 14,                             !- X,Y,Z Vertex 1 {m}
  50, 20, 14,                             !- X,Y,Z Vertex 2 {m}
  50, 20, 10.5,                           !- X,Y,Z Vertex 3 {m}
  50, 40, 10.5;                           !- X,Y,Z Vertex 4 {m}

FenestrationSurface:Detailed,
  Sub Surface 32,                         !- Name
  Window,                                 !- Surface Type
  Vidro U3 SHGC0.4,                       !- Construction Name
  Surface 94,                             !- Building Surface Name
  ,                                       !- Outside Boundary Condition Object
  ,                                       !- View Factor to Ground
  ,                                       !- Frame and Divider Name
  ,                                       !- Multiplier
  ,                                       !- Number of Vertices
  50, 20.0254, 12.3146737914302,          !- X,Y,Z Vertex 1 {m}
  50, 20.0254, 11.262,                    !- X,Y,Z Vertex 2 {m}
  50, 39.9746, 11.262,                    !- X,Y,Z Vertex 3 {m}
  50, 39.9746, 12.3146737914302;          !- X,Y,Z Vertex 4 {m}

BuildingSurface:Detailed,
  Surface 95,                             !- Name
  Wall,                                   !- Surface Type
  Alvenaria rebocada,                     !- Construction Name
  Zona P4_1_1,                            !- Zone Name
  P4_1_1,                                 !- Space Name
  Surface,                                !- Outside Boundary Condition
  Surface 87,                             !- Outside Boundary Condition Object
  NoSun,                                  !- Sun Exposure
  NoWind,                                 !- Wind Exposure
  ,                                       !- View Factor to Ground
  ,                                       !- Number of Vertices
  50, 20, 14,                             !- X,Y,Z Vertex 1 {m}
  25, 20, 14,                             !- X,Y,Z Vertex 2 {m}
  25, 20, 10.5,                           !- X,Y,Z Vertex 3 {m}
  50, 20, 10.5;                           !- X,Y,Z Vertex 4 {m}

BuildingSurface:Detailed,
  Surface 96,                             !- Name
  Roof,                                   !- Surface Type
  Cobertura isolada,                      !- Construction Name
  Zona P4_1_1,                            !- Zone Name
  P4_1_1,                                 !- Space Name
  Outdoors,                               !- Outside Boundary Condition
  ,                                       !- Outside Boundary Condition Object
  SunExposed,                             !- Sun Exposure
  WindExposed,                            !- Wind Exposure
  ,                                       !- View Factor to Ground
  ,                                       !- Number of Vertices
  50, 20, 14,                             !- X,Y,Z Vertex 1 {m}
  50, 40, 14,                             !- X,Y,Z Vertex 2 {m}
  25, 40, 14,                             !- X,Y,Z Vertex 3 {m}
  25, 20, 14;                             !- X,Y,Z Vertex 4 {m}

Lights,
  Lights 16,                              !- Name
  P4_1_1,                                 !- Zone or ZoneList or Space or SpaceList Name
  Iluminacao,                             !- Schedule Name
  Watts/Area,                             !- Design Level Calculation Method
  ,                                       !- Lighting Level {W}
  8,                                      !- Watts per Floor Area {W/m2}
  ,                                       !- Watts per Person {W/person}
  ,                                       !- Return Air Fraction
  ,                                       !- Fraction Radiant
  ,                                       !- Fraction Visible
  1,                                      !- Fraction Replaceable
  General;                                !- End-Use Subcategory

People,
  People 16,                              !- Name
  P4_1_1,                                 !- Zone or ZoneList or Space or SpaceList Name
  Ocupacao,                               !- Number of People Schedule Name
  People/Area,                            !- Number of People Calculation Method
  ,                                       !- Number of People
  0.08,                                   !- People per Floor Area {person/m2}
  ,                                       !- Floor Area per Person {m2/person}
  0.3,                                    !- Fraction Radiant
  ,                                       !- Sensible Heat Fraction
  Atividade sedentaria 120 W pessoa,      !- Activity Level Schedule Name
  ,                                       !- Carbon Dioxide Generation Rate {m3/s-W}
  ,                                       !- Enable ASHRAE 55 Comfort Warnings
  ,                                       !- Mean Radiant Temperature Calculation Type
  ,                                       !- Surface Name/Angle Factor List Name
  ,                                       !- Work Efficiency Schedule Name
  ClothingInsulationSchedule;             !- Clothing Insulation Calculation Method

ElectricEquipment,
  Electric Equipment 16,                  !- Name
  P4_1_1,                                 !- Zone or ZoneList or Space or SpaceList Name
  Computadores e demais equipamentos,     !- Schedule Name
  Watts/Area,                             !- Design Level Calculation Method
  ,                                       !- Design Level {W}
  12,                                     !- Watts per Floor Area {W/m2}
  ,                                       !- Watts per Person {W/person}
  ,                                       !- Fraction Latent
  ,                                       !- Fraction Radiant
  ,                                       !- Fraction Lost
  Computadores e cargas de escritorio;    !- End-Use Subcategory

ZoneInfiltration:DesignFlowRate,
  Space Infiltration Design Flow Rate 16, !- Name
  P4_1_1,                                 !- Zone or ZoneList or Space or SpaceList Name
  Always On Discrete,                     !- Schedule Name
  AirChanges/Hour,                        !- Design Flow Rate Calculation Method
  ,                                       !- Design Flow Rate {m3/s}
  ,                                       !- Flow Rate per Floor Area {m3/s-m2}
  ,                                       !- Flow Rate per Exterior Surface Area {m3/s-m2}
  0.15,                                   !- Air Changes per Hour {1/hr}
  ,                                       !- Constant Term Coefficient
  ,                                       !- Temperature Term Coefficient
  ,                                       !- Velocity Term Coefficient
  ,                                       !- Velocity Squared Term Coefficient
  Outdoor;                                !- Density Basis

ZoneControl:Thermostat,
  Zona P4_1_1 Thermostat,                 !- Name
  Zona P4_1_1,                            !- Zone or ZoneList Name
  Zona P4_1_1 Thermostat Schedule,        !- Control Type Schedule Name
  ThermostatSetpoint:DualSetpoint,        !- Control 1 Object Type
  Thermostat Setpoint Dual Setpoint 16,   !- Control 1 Name
  ,                                       !- Control 2 Object Type
  ,                                       !- Control 2 Name
  ,                                       !- Control 3 Object Type
  ,                                       !- Control 3 Name
  ,                                       !- Control 4 Object Type
  ,                                       !- Control 4 Name
  0;                                      !- Temperature Difference Between Cutout And Setpoint {deltaC}

Schedule:Compact,
  Zona P4_1_1 Thermostat Schedule,        !- Name
  Zona P4_1_1 Thermostat Schedule Type Limits, !- Schedule Type Limits Name
  Through: 12/31,                         !- Field 1
  For: AllDays,                           !- Field 2
  Until: 24:00,                           !- Field 3
  4;                                      !- Field 4

ScheduleTypeLimits,
  Zona P4_1_1 Thermostat Schedule Type Limits, !- Name
  0,                                      !- Lower Limit Value {BasedOnField A3}
  4,                                      !- Upper Limit Value {BasedOnField A3}
  DISCRETE;                               !- Numeric Type

ThermostatSetpoint:DualSetpoint,
  Thermostat Setpoint Dual Setpoint 16,   !- Name
  Aquecimento 20C,                        !- Heating Setpoint Temperature Schedule Name
  Resfriamento 24C;                       !- Cooling Setpoint Temperature Schedule Name

ZoneHVAC:EquipmentConnections,
  Zona P4_1_1,                            !- Zone Name
  Zona P4_1_1 Equipment List,             !- Zone Conditioning Equipment List Name
  Zona P4_1_1 Inlet Node List,            !- Zone Air Inlet Node or NodeList Name
  Zona P4_1_1 Exhaust Node List,          !- Zone Air Exhaust Node or NodeList Name
  Node 46;                                !- Zone Air Node Name

NodeList,
  Zona P4_1_1 Inlet Node List,            !- Name
  Node 48;                                !- Node Name 1

NodeList,
  Zona P4_1_1 Exhaust Node List,          !- Name
  Node 47;                                !- Node Name 1

ZoneHVAC:PackagedTerminalAirConditioner,
  Ar condicionado P4_1_1,                 !- Name
  HVAC 07-22,                             !- Availability Schedule Name
  Node 47,                                !- Air Inlet Node Name
  Node 48,                                !- Air Outlet Node Name
  OutdoorAir:Mixer,                       !- Outdoor Air Mixer Object Type
  Ar condicionado P4_1_1 OA Mixer,        !- Outdoor Air Mixer Name
  Autosize,                               !- Cooling Supply Air Flow Rate {m3/s}
  Autosize,                               !- Heating Supply Air Flow Rate {m3/s}
  Autosize,                               !- No Load Supply Air Flow Rate {m3/s}
  Yes,                                    !- No Load Supply Air Flow Rate Control Set To Low Speed
  0.45,                                   !- Cooling Outdoor Air Flow Rate {m3/s}
  0.45,                                   !- Heating Outdoor Air Flow Rate {m3/s}
  0.45,                                   !- No Load Outdoor Air Flow Rate {m3/s}
  Fan:ConstantVolume,                     !- Supply Air Fan Object Type
  Fan Constant Volume 16,                 !- Supply Air Fan Name
  Coil:Heating:Electric,                  !- Heating Coil Object Type
  Coil Heating Electric 16,               !- Heating Coil Name
  Coil:Cooling:DX:SingleSpeed,            !- Cooling Coil Object Type
  Coil Cooling DX Single Speed 16,        !- Cooling Coil Name
  DrawThrough,                            !- Fan Placement
  Always On Discrete;                     !- Supply Air Fan Operating Mode Schedule Name

OutdoorAir:Mixer,
  Ar condicionado P4_1_1 OA Mixer,        !- Name
  Ar condicionado P4_1_1 Mixed Air Node,  !- Mixed Air Node Name
  Ar condicionado P4_1_1 OA Node,         !- Outdoor Air Stream Node Name
  Ar condicionado P4_1_1 Relief Air Node, !- Relief Air Stream Node Name
  Node 47;                                !- Return Air Stream Node Name

OutdoorAir:NodeList,
  Ar condicionado P4_1_1 OA Node;         !- Node or NodeList Name 1

Fan:ConstantVolume,
  Fan Constant Volume 16,                 !- Name
  Always On Discrete,                     !- Availability Schedule Name
  0.6,                                    !- Fan Total Efficiency
  350,                                    !- Pressure Rise {Pa}
  AutoSize,                               !- Maximum Flow Rate {m3/s}
  0.9,                                    !- Motor Efficiency
  1,                                      !- Motor In Airstream Fraction
  Ar condicionado P4_1_1 Heating Coil Outlet Node, !- Air Inlet Node Name
  Node 48,                                !- Air Outlet Node Name
  ;                                       !- End-Use Subcategory

Coil:Heating:Electric,
  Coil Heating Electric 16,               !- Name
  Always On Discrete,                     !- Availability Schedule Name
  1,                                      !- Efficiency
  Autosize,                               !- Nominal Capacity {W}
  Ar condicionado P4_1_1 Cooling Coil Outlet Node, !- Air Inlet Node Name
  Ar condicionado P4_1_1 Heating Coil Outlet Node; !- Air Outlet Node Name

Curve:Biquadratic,
  Curve Biquadratic 31,                   !- Name
  0.942587793,                            !- Coefficient1 Constant
  0.009543347,                            !- Coefficient2 x
  0.00068377,                             !- Coefficient3 x**2
  -0.011042676,                           !- Coefficient4 y
  5.249e-06,                              !- Coefficient5 y**2
  -9.72e-06,                              !- Coefficient6 x*y
  17,                                     !- Minimum Value of x {BasedOnField A2}
  22,                                     !- Maximum Value of x {BasedOnField A2}
  13,                                     !- Minimum Value of y {BasedOnField A3}
  46;                                     !- Maximum Value of y {BasedOnField A3}

Curve:Quadratic,
  Curve Quadratic 46,                     !- Name
  0.8,                                    !- Coefficient1 Constant
  0.2,                                    !- Coefficient2 x
  0,                                      !- Coefficient3 x**2
  0.5,                                    !- Minimum Value of x {BasedOnField A2}
  1.5;                                    !- Maximum Value of x {BasedOnField A2}

Curve:Biquadratic,
  Curve Biquadratic 32,                   !- Name
  0.342414409,                            !- Coefficient1 Constant
  0.034885008,                            !- Coefficient2 x
  -0.0006237,                             !- Coefficient3 x**2
  0.004977216,                            !- Coefficient4 y
  0.000437951,                            !- Coefficient5 y**2
  -0.000728028,                           !- Coefficient6 x*y
  17,                                     !- Minimum Value of x {BasedOnField A2}
  22,                                     !- Maximum Value of x {BasedOnField A2}
  13,                                     !- Minimum Value of y {BasedOnField A3}
  46;                                     !- Maximum Value of y {BasedOnField A3}

Curve:Quadratic,
  Curve Quadratic 47,                     !- Name
  1.1552,                                 !- Coefficient1 Constant
  -0.1808,                                !- Coefficient2 x
  0.0256,                                 !- Coefficient3 x**2
  0.5,                                    !- Minimum Value of x {BasedOnField A2}
  1.5;                                    !- Maximum Value of x {BasedOnField A2}

Curve:Quadratic,
  Curve Quadratic 48,                     !- Name
  0.85,                                   !- Coefficient1 Constant
  0.15,                                   !- Coefficient2 x
  0,                                      !- Coefficient3 x**2
  0,                                      !- Minimum Value of x {BasedOnField A2}
  1;                                      !- Maximum Value of x {BasedOnField A2}

Coil:Cooling:DX:SingleSpeed,
  Coil Cooling DX Single Speed 16,        !- Name
  Always On Discrete,                     !- Availability Schedule Name
  Autosize,                               !- Gross Rated Total Cooling Capacity {W}
  Autosize,                               !- Gross Rated Sensible Heat Ratio
  3.2,                                    !- Gross Rated Cooling COP {W/W}
  Autosize,                               !- Rated Air Flow Rate {m3/s}
  773.3,                                  !- Rated Evaporator Fan Power Per Volume Flow Rate 2017 {W/(m3/s)}
  934.4,                                  !- Rated Evaporator Fan Power Per Volume Flow Rate 2023 {W/(m3/s)}
  Ar condicionado P4_1_1 Mixed Air Node,  !- Air Inlet Node Name
  Ar condicionado P4_1_1 Cooling Coil Outlet Node, !- Air Outlet Node Name
  Curve Biquadratic 31,                   !- Total Cooling Capacity Function of Temperature Curve Name
  Curve Quadratic 46,                     !- Total Cooling Capacity Function of Flow Fraction Curve Name
  Curve Biquadratic 32,                   !- Energy Input Ratio Function of Temperature Curve Name
  Curve Quadratic 47,                     !- Energy Input Ratio Function of Flow Fraction Curve Name
  Curve Quadratic 48,                     !- Part Load Fraction Correlation Curve Name
  -25,                                    !- Minimum Outdoor Dry-Bulb Temperature for Compressor Operation {C}
  0,                                      !- Nominal Time for Condensate Removal to Begin {s}
  0,                                      !- Ratio of Initial Moisture Evaporation Rate and Steady State Latent Capacity {dimensionless}
  0,                                      !- Maximum Cycling Rate {cycles/hr}
  0,                                      !- Latent Capacity Time Constant {s}
  ,                                       !- Condenser Air Inlet Node Name
  AirCooled,                              !- Condenser Type
  0.9,                                    !- Evaporative Condenser Effectiveness {dimensionless}
  Autosize,                               !- Evaporative Condenser Air Flow Rate {m3/s}
  Autosize,                               !- Evaporative Condenser Pump Rated Power Consumption {W}
  0,                                      !- Crankcase Heater Capacity {W}
  ,                                       !- Crankcase Heater Capacity Function of Temperature Curve Name
  10,                                     !- Maximum Outdoor Dry-Bulb Temperature for Crankcase Heater Operation {C}
  ,                                       !- Supply Water Storage Tank Name
  ,                                       !- Condensate Collection Water Storage Tank Name
  0,                                      !- Basin Heater Capacity {W/K}
  2;                                      !- Basin Heater Setpoint Temperature {C}

ZoneHVAC:EquipmentList,
  Zona P4_1_1 Equipment List,             !- Name
  SequentialLoad,                         !- Load Distribution Scheme
  ZoneHVAC:PackagedTerminalAirConditioner, !- Zone Equipment Object Type 1
  Ar condicionado P4_1_1,                 !- Zone Equipment Name 1
  1,                                      !- Zone Equipment Cooling Sequence 1
  1,                                      !- Zone Equipment Heating or No-Load Sequence 1
  ,                                       !- Zone Equipment Sequential Cooling Fraction Schedule Name 1
  ;                                       !- Zone Equipment Sequential Heating Fraction Schedule Name 1

Sizing:Zone,
  Zona P4_1_1,                            !- Zone or ZoneList Name
  SupplyAirTemperature,                   !- Zone Cooling Design Supply Air Temperature Input Method
  14,                                     !- Zone Cooling Design Supply Air Temperature {C}
  11.11,                                  !- Zone Cooling Design Supply Air Temperature Difference {deltaC}
  SupplyAirTemperature,                   !- Zone Heating Design Supply Air Temperature Input Method
  40,                                     !- Zone Heating Design Supply Air Temperature {C}
  11.11,                                  !- Zone Heating Design Supply Air Temperature Difference {deltaC}
  0.0085,                                 !- Zone Cooling Design Supply Air Humidity Ratio {kgWater/kgDryAir}
  0.008,                                  !- Zone Heating Design Supply Air Humidity Ratio {kgWater/kgDryAir}
  Design Specification Outdoor Air 16,    !- Design Specification Outdoor Air Object Name
  ,                                       !- Zone Heating Sizing Factor
  ,                                       !- Zone Cooling Sizing Factor
  DesignDay,                              !- Cooling Design Air Flow Method
  0,                                      !- Cooling Design Air Flow Rate {m3/s}
  0.000762,                               !- Cooling Minimum Air Flow per Zone Floor Area {m3/s-m2}
  0,                                      !- Cooling Minimum Air Flow {m3/s}
  0,                                      !- Cooling Minimum Air Flow Fraction
  DesignDay,                              !- Heating Design Air Flow Method
  0,                                      !- Heating Design Air Flow Rate {m3/s}
  0.002032,                               !- Heating Maximum Air Flow per Zone Floor Area {m3/s-m2}
  0.1415762,                              !- Heating Maximum Air Flow {m3/s}
  0.3,                                    !- Heating Maximum Air Flow Fraction
  ,                                       !- Design Specification Zone Air Distribution Object Name
  No,                                     !- Account for Dedicated Outdoor Air System
  ,                                       !- Dedicated Outdoor Air System Control Strategy
  ,                                       !- Dedicated Outdoor Air Low Setpoint Temperature for Design {C}
  ,                                       !- Dedicated Outdoor Air High Setpoint Temperature for Design {C}
  Sensible Load Only No Latent Load,      !- Zone Load Sizing Method
  HumidityRatioDifference,                !- Zone Latent Cooling Design Supply Air Humidity Ratio Input Method
  ,                                       !- Zone Dehumidification Design Supply Air Humidity Ratio {kgWater/kgDryAir}
  0.005,                                  !- Zone Cooling Design Supply Air Humidity Ratio Difference {kgWater/kgDryAir}
  HumidityRatioDifference,                !- Zone Latent Heating Design Supply Air Humidity Ratio Input Method
  ,                                       !- Zone Humidification Design Supply Air Humidity Ratio {kgWater/kgDryAir}
  0.005,                                  !- Zone Humidification Design Supply Air Humidity Ratio Difference {kgWater/kgDryAir}
  ,                                       !- Zone Humidistat Dehumidification Set Point Schedule Name
  ,                                       !- Zone Humidistat Humidification Set Point Schedule Name
  Coincident,                             !- Type of Space Sum to Use
  None,                                   !- Heating Coil Sizing Method
  1;                                      !- Maximum Heating Capacity To Cooling Load Sizing Ratio {W/W}

DesignSpecification:OutdoorAir,
  Design Specification Outdoor Air 16,    !- Name
  Sum,                                    !- Outdoor Air Method
  0.0075,                                 !- Outdoor Air Flow per Person {m3/s-person}
  0.0003,                                 !- Outdoor Air Flow per Zone Floor Area {m3/s-m2}
  0,                                      !- Outdoor Air Flow per Zone {m3/s}
  0;                                      !- Outdoor Air Flow Air Changes per Hour {1/hr}

Output:Meter:MeterFileOnly,
  Cooling:Electricity,                    !- Key Name
  Timestep;                               !- Reporting Frequency

Output:Meter:MeterFileOnly,
  Fans:Electricity,                       !- Key Name
  Timestep;                               !- Reporting Frequency

Output:Meter:MeterFileOnly,
  Heating:Electricity,                    !- Key Name
  Timestep;                               !- Reporting Frequency

Output:Meter:MeterFileOnly,
  InteriorEquipment:Electricity,          !- Key Name
  Timestep;                               !- Reporting Frequency

Output:Meter:MeterFileOnly,
  InteriorLights:Electricity,             !- Key Name
  Timestep;                               !- Reporting Frequency

SimulationControl,
  Yes,                                    !- Do Zone Sizing Calculation
  No,                                     !- Do System Sizing Calculation
  No,                                     !- Do Plant Sizing Calculation
  No,                                     !- Run Simulation for Sizing Periods
  Yes,                                    !- Run Simulation for Weather File Run Periods
  ,                                       !- Do HVAC Sizing Simulation for Sizing Periods
  ;                                       !- Maximum Number of HVAC Sizing Simulation Passes

RunPeriod,
  Run Period 1,                           !- Name
  1,                                      !- Begin Month
  1,                                      !- Begin Day of Month
  2026,                                   !- Begin Year
  6,                                      !- End Month
  30,                                     !- End Day of Month
  2026,                                   !- End Year
  Thursday,                               !- Day of Week for Start Day
  No,                                     !- Use Weather File Holidays and Special Days
  No,                                     !- Use Weather File Daylight Saving Period
  No,                                     !- Apply Weekend Holiday Rule
  Yes,                                    !- Use Weather File Rain Indicators
  Yes;                                    !- Use Weather File Snow Indicators

Sizing:Parameters,
  1.25,                                   !- Heating Sizing Factor
  1.15;                                   !- Cooling Sizing Factor

Output:Table:SummaryReports,
  AllSummary;                             !- Report Name 1

GlobalGeometryRules,
  UpperLeftCorner,                        !- Starting Vertex Position
  Counterclockwise,                       !- Vertex Entry Direction
  Relative,                               !- Coordinate System
  Relative,                               !- Daylighting Reference Point Coordinate System
  Relative;                               !- Rectangular Surface Coordinate System

Material,
  Alvenaria rebocada camada 0,            !- Name
  Smooth,                                 !- Roughness
  0.02,                                   !- Thickness {m}
  1,                                      !- Conductivity {W/m-K}
  1800,                                   !- Density {kg/m3}
  840,                                    !- Specific Heat {J/kg-K}
  0.9,                                    !- Thermal Absorptance
  0.7,                                    !- Solar Absorptance
  0.7;                                    !- Visible Absorptance

Material,
  Alvenaria rebocada camada 1,            !- Name
  Smooth,                                 !- Roughness
  0.15,                                   !- Thickness {m}
  0.6,                                    !- Conductivity {W/m-K}
  1200,                                   !- Density {kg/m3}
  840,                                    !- Specific Heat {J/kg-K}
  0.9,                                    !- Thermal Absorptance
  0.7,                                    !- Solar Absorptance
  0.7;                                    !- Visible Absorptance

Material,
  Cobertura isolada camada 0,             !- Name
  Smooth,                                 !- Roughness
  0.1,                                    !- Thickness {m}
  1.7,                                    !- Conductivity {W/m-K}
  2300,                                   !- Density {kg/m3}
  880,                                    !- Specific Heat {J/kg-K}
  0.9,                                    !- Thermal Absorptance
  0.7,                                    !- Solar Absorptance
  0.7;                                    !- Visible Absorptance

Material,
  Cobertura isolada camada 1,             !- Name
  Smooth,                                 !- Roughness
  0.05,                                   !- Thickness {m}
  0.04,                                   !- Conductivity {W/m-K}
  30,                                     !- Density {kg/m3}
  1400,                                   !- Specific Heat {J/kg-K}
  0.9,                                    !- Thermal Absorptance
  0.7,                                    !- Solar Absorptance
  0.7;                                    !- Visible Absorptance

Material,
  Cobertura isolada camada 2,             !- Name
  Smooth,                                 !- Roughness
  0.02,                                   !- Thickness {m}
  0.16,                                   !- Conductivity {W/m-K}
  800,                                    !- Density {kg/m3}
  1090,                                   !- Specific Heat {J/kg-K}
  0.9,                                    !- Thermal Absorptance
  0.7,                                    !- Solar Absorptance
  0.7;                                    !- Visible Absorptance

Material,
  Laje concreto camada 0,                 !- Name
  Smooth,                                 !- Roughness
  0.15,                                   !- Thickness {m}
  1.7,                                    !- Conductivity {W/m-K}
  2300,                                   !- Density {kg/m3}
  880,                                    !- Specific Heat {J/kg-K}
  0.9,                                    !- Thermal Absorptance
  0.7,                                    !- Solar Absorptance
  0.7;                                    !- Visible Absorptance

WindowMaterial:SimpleGlazingSystem,
  Window Material Simple Glazing System 1, !- Name
  3,                                      !- U-Factor {W/m2-K}
  0.4,                                    !- Solar Heat Gain Coefficient
  0.6;                                    !- Visible Transmittance

Construction,
  Alvenaria rebocada,                     !- Name
  Alvenaria rebocada camada 0,            !- Layer 1
  Alvenaria rebocada camada 1,            !- Layer 2
  Alvenaria rebocada camada 0;            !- Layer 3

Construction,
  Cobertura isolada,                      !- Name
  Cobertura isolada camada 0,             !- Layer 1
  Cobertura isolada camada 1,             !- Layer 2
  Cobertura isolada camada 2;             !- Layer 3

Construction,
  Laje concreto,                          !- Name
  Laje concreto camada 0;                 !- Layer 1

Construction,
  Vidro U3 SHGC0.4,                       !- Name
  Window Material Simple Glazing System 1; !- Layer 1

Schedule:Constant,
  Always Off Discrete,                    !- Name
  OnOff 1,                                !- Schedule Type Limits Name
  0;                                      !- Hourly Value

Schedule:Constant,
  Always On Continuous,                   !- Name
  Fractional 1,                           !- Schedule Type Limits Name
  1;                                      !- Hourly Value

ScheduleTypeLimits,
  ActivityLevel,                          !- Name
  0,                                      !- Lower Limit Value {BasedOnField A3}
  ,                                       !- Upper Limit Value {BasedOnField A3}
  Continuous,                             !- Numeric Type
  activitylevel;                          !- Unit Type

ScheduleTypeLimits,
  Fractional 1,                           !- Name
  0,                                      !- Lower Limit Value {BasedOnField A3}
  1,                                      !- Upper Limit Value {BasedOnField A3}
  Continuous;                             !- Numeric Type

ScheduleTypeLimits,
  OnOff 1,                                !- Name
  0,                                      !- Lower Limit Value {BasedOnField A3}
  1,                                      !- Upper Limit Value {BasedOnField A3}
  Discrete,                               !- Numeric Type
  availability;                           !- Unit Type

OutdoorAir:Node,
  Model Outdoor Air Node;                 !- Name

OutputControl:Files,
  Yes,                                    !- Output CSV
  Yes,                                    !- Output MTR
  Yes,                                    !- Output ESO
  Yes,                                    !- Output EIO
  Yes,                                    !- Output Tabular
  Yes,                                    !- Output SQLite
  Yes,                                    !- Output JSON
  Yes,                                    !- Output AUDIT
  Yes,                                    !- Output Space Sizing
  Yes,                                    !- Output Zone Sizing
  Yes,                                    !- Output System Sizing
  Yes,                                    !- Output DXF
  Yes,                                    !- Output BND
  Yes,                                    !- Output RDD
  Yes,                                    !- Output MDD
  Yes,                                    !- Output MTD
  Yes,                                    !- Output END
  Yes,                                    !- Output SHD
  Yes,                                    !- Output DFS
  Yes,                                    !- Output GLHE
  Yes,                                    !- Output DelightIn
  Yes,                                    !- Output DelightELdmp
  Yes,                                    !- Output DelightDFdmp
  Yes,                                    !- Output EDD
  Yes,                                    !- Output DBG
  Yes,                                    !- Output PerfLog
  Yes,                                    !- Output SLN
  Yes,                                    !- Output SCI
  Yes,                                    !- Output WRL
  Yes,                                    !- Output Screen
  Yes,                                    !- Output ExtShd
  Yes,                                    !- Output Tarcog
  Yes;                                    !- Output Plant Component Sizing

Output:SQLite,
  SimpleAndTabular,                       !- Option Type
  UseOutputControlTableStyle;             !- Unit Conversion for Tabular Data

Site:Location,
  Site 1,                                 !- Name
  -23.627,                                !- Latitude {deg}
  -46.655,                                !- Longitude {deg}
  -3,                                     !- Time Zone {hr}
  801.9;                                  !- Elevation {m}

Site:GroundTemperature:BuildingSurface,
  23,                                     !- January Ground Temperature {C}
  24,                                     !- February Ground Temperature {C}
  24,                                     !- March Ground Temperature {C}
  22,                                     !- April Ground Temperature {C}
  20,                                     !- May Ground Temperature {C}
  18,                                     !- June Ground Temperature {C}
  17,                                     !- July Ground Temperature {C}
  18,                                     !- August Ground Temperature {C}
  19,                                     !- September Ground Temperature {C}
  20,                                     !- October Ground Temperature {C}
  21,                                     !- November Ground Temperature {C}
  22;                                     !- December Ground Temperature {C}

SizingPeriod:DesignDay,
  Sao.Paulo-Congonhas.AP Ann Clg .4% Condns DB=>MWB, !- Name
  2,                                      !- Month
  21,                                     !- Day of Month
  SummerDesignDay,                        !- Day Type
  32.5,                                   !- Maximum Dry-Bulb Temperature {C}
  10.3,                                   !- Daily Dry-Bulb Temperature Range {deltaC}
  DefaultMultipliers,                     !- Dry-Bulb Temperature Range Modifier Type
  ,                                       !- Dry-Bulb Temperature Range Modifier Day Schedule Name
  Wetbulb,                                !- Humidity Condition Type
  20,                                     !- Wetbulb or DewPoint at Maximum Dry-Bulb {C}
  ,                                       !- Humidity Condition Day Schedule Name
  ,                                       !- Humidity Ratio at Maximum Dry-Bulb {kgWater/kgDryAir}
  ,                                       !- Enthalpy at Maximum Dry-Bulb {J/kg}
  ,                                       !- Daily Wet-Bulb Temperature Range {deltaC}
  92055,                                  !- Barometric Pressure {Pa}
  4,                                      !- Wind Speed {m/s}
  320,                                    !- Wind Direction {deg}
  No,                                     !- Rain Indicator
  No,                                     !- Snow Indicator
  No,                                     !- Daylight Saving Time Indicator
  ASHRAETau2017,                          !- Solar Model Indicator
  ,                                       !- Beam Solar Day Schedule Name
  ,                                       !- Diffuse Solar Day Schedule Name
  0.397,                                  !- ASHRAE Clear Sky Optical Depth for Beam Irradiance (taub) {dimensionless}
  2.412,                                  !- ASHRAE Clear Sky Optical Depth for Diffuse Irradiance (taud) {dimensionless}
  ,                                       !- Sky Clearness
  ,                                       !- Maximum Number Warmup Days
  FullResetAtBeginEnvironment;            !- Begin Environment Reset Mode

SizingPeriod:DesignDay,
  Sao.Paulo-Congonhas.AP Ann Htg 99.6% Condns DB, !- Name
  7,                                      !- Month
  21,                                     !- Day of Month
  WinterDesignDay,                        !- Day Type
  9.2,                                    !- Maximum Dry-Bulb Temperature {C}
  0,                                      !- Daily Dry-Bulb Temperature Range {deltaC}
  DefaultMultipliers,                     !- Dry-Bulb Temperature Range Modifier Type
  ,                                       !- Dry-Bulb Temperature Range Modifier Day Schedule Name
  Wetbulb,                                !- Humidity Condition Type
  9.2,                                    !- Wetbulb or DewPoint at Maximum Dry-Bulb {C}
  ,                                       !- Humidity Condition Day Schedule Name
  ,                                       !- Humidity Ratio at Maximum Dry-Bulb {kgWater/kgDryAir}
  ,                                       !- Enthalpy at Maximum Dry-Bulb {J/kg}
  ,                                       !- Daily Wet-Bulb Temperature Range {deltaC}
  92055,                                  !- Barometric Pressure {Pa}
  3,                                      !- Wind Speed {m/s}
  170,                                    !- Wind Direction {deg}
  No,                                     !- Rain Indicator
  No,                                     !- Snow Indicator
  No,                                     !- Daylight Saving Time Indicator
  ASHRAEClearSky,                         !- Solar Model Indicator
  ,                                       !- Beam Solar Day Schedule Name
  ,                                       !- Diffuse Solar Day Schedule Name
  ,                                       !- ASHRAE Clear Sky Optical Depth for Beam Irradiance (taub) {dimensionless}
  ,                                       !- ASHRAE Clear Sky Optical Depth for Diffuse Irradiance (taud) {dimensionless}
  0,                                      !- Sky Clearness
  ,                                       !- Maximum Number Warmup Days
  FullResetAtBeginEnvironment;            !- Begin Environment Reset Mode

Output:Meter:MeterFileOnly,
  Electricity:Facility,                   !- Key Name
  Timestep;                               !- Reporting Frequency

Output:Variable,
  ,                                       !- Key Value
  Site Outdoor Air Drybulb Temperature,   !- Variable Name
  Timestep;                               !- Reporting Frequency

Output:Variable,
  ,                                       !- Key Value
  Site Outdoor Air Relative Humidity,     !- Variable Name
  Timestep;                               !- Reporting Frequency

Output:Variable,
  ,                                       !- Key Value
  Facility Total Electricity Demand Rate, !- Variable Name
  Timestep;                               !- Reporting Frequency

Output:Variable,
  ,                                       !- Key Value
  Zone Mean Air Temperature,              !- Variable Name
  Timestep;                               !- Reporting Frequency

Output:Variable,
  ,                                       !- Key Value
  Zone Thermostat Cooling Setpoint Temperature, !- Variable Name
  Timestep;                               !- Reporting Frequency

Output:Variable,
  ,                                       !- Key Value
  Zone Thermostat Heating Setpoint Temperature, !- Variable Name
  Timestep;                               !- Reporting Frequency

OutputControl:Table:Style,
  HTML;                                   !- Column Separator

Output:VariableDictionary,
  IDF,                                    !- Key Field
  Unsorted;                               !- Sort Option

